! NanoVNA-App
! Date: 2025-10-15 16:43:16
! Start: 132,5MHz Stop: 157,5MHz Points: 1024
! S-Parameter data: F S11
# Hz S RI R 50
!     Frequency           S11_Real           S11_Imag
      132500000   -5,677564740e-01    5,272172093e-01
      132524438   -5,655743480e-01    5,286629796e-01
      132548876   -5,652963519e-01    5,317205787e-01
      132573314   -5,630307794e-01    5,320142508e-01
      132597752   -5,619102716e-01    5,342156291e-01
      132622190   -5,604825020e-01    5,337298512e-01
      132646628   -5,581282973e-01    5,358035564e-01
      132671065   -5,564963222e-01    5,366399884e-01
      132695503   -5,544357300e-01    5,366060734e-01
      132719941   -5,513486862e-01    5,387765169e-01
      132744379   -5,488703847e-01    5,385265946e-01
      132768817   -5,467256904e-01    5,415261388e-01
      132793255   -5,447098613e-01    5,410524607e-01
      132817693   -5,410062075e-01    5,432073474e-01
      132842131   -5,393653512e-01    5,449804664e-01
      132866569   -5,368004441e-01    5,468980670e-01
      132891007   -5,362457037e-01    5,497390628e-01
      132915445   -5,338413715e-01    5,498499274e-01
      132939883   -5,324094892e-01    5,536436439e-01
      132964321   -5,308771133e-01    5,538864732e-01
      132988759   -5,298470259e-01    5,553980470e-01
      133013196   -5,285109282e-01    5,591950417e-01
      133037634   -5,268374085e-01    5,602414012e-01
      133062072   -5,245807171e-01    5,646342039e-01
      133086510   -5,231448412e-01    5,647153258e-01
      133110948   -5,206635594e-01    5,687238574e-01
      133135386   -5,182882547e-01    5,714611411e-01
      133159824   -5,167818069e-01    5,731121898e-01
      133184262   -5,135562420e-01    5,779761672e-01
      133208700   -5,116847157e-01    5,785284638e-01
      133233138   -5,095725656e-01    5,827565193e-01
      133257576   -5,063989162e-01    5,856053233e-01
      133282014   -5,044457316e-01    5,878153443e-01
      133306452   -5,028319359e-01    5,914342999e-01
      133330890   -5,001559258e-01    5,920854807e-01
      133355327   -4,973129332e-01    5,960374475e-01
      133379765   -4,961601198e-01    5,965794325e-01
      133404203   -4,927686751e-01    5,997825265e-01
      133428641   -4,909378290e-01    6,024531126e-01
      133453079   -4,889132082e-01    6,033689380e-01
      133477517   -4,865097404e-01    6,068485975e-01
      133501955   -4,840682149e-01    6,080402732e-01
      133526393   -4,814799130e-01    6,110296845e-01
      133550831   -4,802335799e-01    6,122927070e-01
      133575269   -4,783298075e-01    6,138457656e-01
      133599707   -4,756031334e-01    6,167329550e-01
      133624145   -4,731577933e-01    6,185490489e-01
      133648583   -4,715067446e-01    6,208418012e-01
      133673021   -4,691953659e-01    6,224932671e-01
      133697458   -4,668555856e-01    6,251259446e-01
      133721896   -4,644818604e-01    6,274468899e-01
      133746334   -4,624078870e-01    6,289438605e-01
      133770772   -4,599726796e-01    6,315671206e-01
      133795210   -4,575156868e-01    6,335060000e-01
      133819648   -4,549164474e-01    6,355106235e-01
      133844086   -4,530535042e-01    6,378576159e-01
      133868524   -4,512526989e-01    6,390754580e-01
      133892962   -4,487510324e-01    6,415526271e-01
      133917400   -4,464998543e-01    6,434808373e-01
      133941838   -4,446399212e-01    6,459299922e-01
      133966276   -4,422029555e-01    6,474677920e-01
      133990714   -4,402278364e-01    6,502161622e-01
      134015152   -4,378467798e-01    6,529777646e-01
      134039589   -4,358672798e-01    6,547183990e-01
      134064027   -4,326685965e-01    6,572723389e-01
      134088465   -4,302151799e-01    6,594862938e-01
      134112903   -4,278966784e-01    6,611512899e-01
      134137341   -4,248974323e-01    6,638975143e-01
      134161779   -4,227624834e-01    6,650552154e-01
      134186217   -4,195263088e-01    6,671398282e-01
      134210655   -4,175610542e-01    6,691293716e-01
      134235093   -4,148755670e-01    6,709083915e-01
      134259531   -4,114988148e-01    6,729953289e-01
      134283969   -4,091982245e-01    6,751356721e-01
      134308407   -4,062663019e-01    6,772044897e-01
      134332845   -4,034051597e-01    6,790625453e-01
      134357283   -4,007901549e-01    6,813408732e-01
      134381720   -3,976854086e-01    6,826198101e-01
      134406158   -3,951174021e-01    6,848024726e-01
      134430596   -3,928255737e-01    6,863320470e-01
      134455034   -3,897222877e-01    6,884106398e-01
      134479472   -3,872270286e-01    6,898673773e-01
      134503910   -3,840552866e-01    6,915504932e-01
      134528348   -3,808280230e-01    6,939734817e-01
      134552786   -3,784559667e-01    6,952106953e-01
      134577224   -3,754763305e-01    6,971508265e-01
      134601662   -3,723264039e-01    6,996089816e-01
      134626100   -3,691275418e-01    7,010540962e-01
      134650538   -3,664518297e-01    7,034223676e-01
      134674976   -3,636252880e-01    7,049499750e-01
      134699413   -3,611299992e-01    7,071012259e-01
      134723851   -3,578847051e-01    7,086813450e-01
      134748289   -3,550789952e-01    7,108368278e-01
      134772727   -3,522672355e-01    7,126306295e-01
      134797165   -3,499821126e-01    7,135572433e-01
      134821603   -3,468334675e-01    7,160922885e-01
      134846041   -3,444936872e-01    7,179080248e-01
      134870479   -3,413498402e-01    7,196616530e-01
      134894917   -3,394547403e-01    7,207813859e-01
      134919355   -3,356530666e-01    7,227551341e-01
      134943793   -3,328614831e-01    7,246984243e-01
      134968231   -3,299316764e-01    7,265240550e-01
      134992669   -3,273999095e-01    7,279692888e-01
      135017107   -3,245853782e-01    7,299543023e-01
      135041544   -3,223304451e-01    7,312929034e-01
      135065982   -3,192734718e-01    7,328614593e-01
      135090420   -3,162384033e-01    7,350143790e-01
      135114858   -3,138031960e-01    7,363175154e-01
      135139296   -3,103959560e-01    7,382802367e-01
      135163734   -3,078933358e-01    7,399181128e-01
      135188172   -3,052832186e-01    7,412722707e-01
      135212610   -3,015969694e-01    7,434750795e-01
      135237048   -2,988447845e-01    7,444697022e-01
      135261486   -2,956635356e-01    7,465764880e-01
      135285924   -2,928315103e-01    7,482788563e-01
      135310362   -2,903264761e-01    7,491861582e-01
      135334800   -2,871616185e-01    7,510397434e-01
      135359238   -2,839348912e-01    7,522689104e-01
      135383675   -2,806347013e-01    7,544965744e-01
      135408113   -2,777010202e-01    7,554079294e-01
      135432551   -2,750365734e-01    7,577444911e-01
      135456989   -2,721623778e-01    7,588362098e-01
      135481427   -2,687067091e-01    7,603520751e-01
      135505865   -2,654703557e-01    7,619413137e-01
      135530303   -2,627361417e-01    7,633285522e-01
      135554741   -2,590554357e-01    7,649584413e-01
      135579179   -2,570195794e-01    7,662285566e-01
      135603617   -2,539098859e-01    7,671731710e-01
      135628055   -2,508753538e-01    7,686535716e-01
      135652493   -2,476785779e-01    7,703360915e-01
      135676931   -2,450149953e-01    7,718164921e-01
      135701369   -2,423562258e-01    7,734000087e-01
      135725806   -2,385229468e-01    7,741943598e-01
      135750244   -2,358475029e-01    7,759339809e-01
      135774682   -2,323946357e-01    7,775864601e-01
      135799120   -2,295754850e-01    7,789307237e-01
      135823558   -2,264767438e-01    7,814298868e-01
      135847996   -2,236116976e-01    7,828981876e-01
      135872434   -2,205137759e-01    7,846418023e-01
      135896872   -2,183378637e-01    7,858421206e-01
      135921310   -2,162791491e-01    7,868807316e-01
      135945748   -2,128762901e-01    7,891269922e-01
      135970186   -2,095763087e-01    7,905384898e-01
      135994624   -2,059849799e-01    7,932145000e-01
      136019062   -2,037976980e-01    7,943580151e-01
      136043500   -1,998002380e-01    7,965686321e-01
      136067937   -1,961363554e-01    7,986530662e-01
      136092375   -1,928973645e-01    8,004137278e-01
      136116813   -1,897550225e-01    8,017806411e-01
      136141251   -1,872812063e-01    8,026745915e-01
      136165689   -1,831624210e-01    8,046658039e-01
      136190127   -1,802811325e-01    8,066433668e-01
      136214565   -1,766299158e-01    8,080859780e-01
      136239003   -1,724515855e-01    8,095946908e-01
      136263441   -1,699090004e-01    8,099845052e-01
      136287879   -1,653227955e-01    8,110467792e-01
      136312317   -1,622601300e-01    8,110007644e-01
      136336755   -1,579829007e-01    8,111110330e-01
      136361193   -1,539687812e-01    8,126114011e-01
      136385630   -1,518311501e-01    8,120312095e-01
      136410068   -1,457932144e-01    8,145366311e-01
      136434506   -1,444892883e-01    8,142154217e-01
      136458944   -1,390575320e-01    8,152382970e-01
      136483382   -1,355653405e-01    8,164828420e-01
      136507820   -1,324898899e-01    8,165116310e-01
      136532258   -1,276570112e-01    8,194122910e-01
      136556696   -1,255791783e-01    8,188925982e-01
      136581134   -1,195920482e-01    8,219234943e-01
      136605572   -1,174126714e-01    8,214983344e-01
      136630010   -1,118876338e-01    8,236417174e-01
      136654448   -1,073121727e-01    8,248446584e-01
      136678886   -1,040991098e-01    8,242812157e-01
      136703324   -9,841056168e-02    8,269583583e-01
      136727761   -9,570185840e-02    8,262673616e-01
      136752199   -9,031238407e-02    8,284559250e-01
      136776637   -8,762481809e-02    8,282406926e-01
      136801075   -8,423969150e-02    8,288881779e-01
      136825513   -7,836911082e-02    8,297729492e-01
      136849951   -7,643038034e-02    8,287198544e-01
      136874389   -7,176049054e-02    8,299587369e-01
      136898827   -6,915391982e-02    8,286533356e-01
      136923265   -6,524217129e-02    8,294796944e-01
      136947703   -6,125129387e-02    8,305146098e-01
      136972141   -5,916176736e-02    8,300554752e-01
      136996579   -5,325541273e-02    8,322194219e-01
      137021017   -5,223854631e-02    8,322072625e-01
      137045455   -4,683164880e-02    8,331862092e-01
      137069892   -4,312966019e-02    8,337194324e-01
      137094330   -4,060390592e-02    8,335856199e-01
      137118768   -3,445798904e-02    8,350549936e-01
      137143206   -3,199214861e-02    8,348565102e-01
      137167644   -2,667860314e-02    8,354315162e-01
      137192082   -2,371418476e-02    8,356639147e-01
      137216520   -1,950131357e-02    8,363732696e-01
      137240958   -1,387783140e-02    8,371233940e-01
      137265396   -1,157903299e-02    8,367613554e-01
      137289834   -5,359046161e-03    8,376244307e-01
      137314272   -2,757307142e-03    8,372200131e-01
      137338710    2,140659839e-03    8,380278349e-01
      137363148    6,887134165e-03    8,381801248e-01
      137387586    8,928406984e-03    8,381547332e-01
      137412023    1,512776874e-02    8,392779827e-01
      137436461    1,791511290e-02    8,385226130e-01
      137460899    2,233975567e-02    8,393555284e-01
      137485337    2,677099779e-02    8,397248983e-01
      137509775    3,027532622e-02    8,395591974e-01
      137534213    3,524573147e-02    8,407152295e-01
      137558651    3,840639442e-02    8,397490978e-01
      137583089    4,304593056e-02    8,409152627e-01
      137607527    4,728399962e-02    8,401591778e-01
      137631965    5,059866980e-02    8,400895596e-01
      137656403    5,548618734e-02    8,405435681e-01
      137680841    5,854318291e-02    8,400070667e-01
      137705279    6,422576308e-02    8,403018117e-01
      137729717    6,686450541e-02    8,401564956e-01
      137754154    7,149963081e-02    8,398329020e-01
      137778592    7,531610131e-02    8,396180272e-01
      137803030    7,983741909e-02    8,396238089e-01
      137827468    8,348871768e-02    8,396711946e-01
      137851906    8,791530877e-02    8,388758898e-01
      137876344    9,206105769e-02    8,388633132e-01
      137900782    9,685614705e-02    8,383117914e-01
      137925220    1,004636362e-01    8,381114006e-01
      137949658    1,043816507e-01    8,378391266e-01
      137974096    1,092187911e-01    8,372246027e-01
      137998534    1,142908260e-01    8,368222713e-01
      138022972    1,179078817e-01    8,369699717e-01
      138047410    1,221505553e-01    8,362780213e-01
      138071848    1,265199333e-01    8,355936408e-01
      138096285    1,307129562e-01    8,350633383e-01
      138120723    1,344341338e-01    8,340628147e-01
      138145161    1,396827996e-01    8,339327574e-01
      138169599    1,435889006e-01    8,327057362e-01
      138194037    1,485186964e-01    8,325240016e-01
      138218475    1,523272097e-01    8,320270777e-01
      138242913    1,569812000e-01    8,311762214e-01
      138267351    1,615875959e-01    8,303316832e-01
      138291789    1,658618152e-01    8,298341632e-01
      138316227    1,706022322e-01    8,291843534e-01
      138340665    1,759816706e-01    8,279639482e-01
      138365103    1,794187427e-01    8,273568749e-01
      138389541    1,837843210e-01    8,258542418e-01
      138413978    1,881764829e-01    8,250754476e-01
      138438416    1,930964887e-01    8,242177367e-01
      138462854    1,970105171e-01    8,237690926e-01
      138487292    2,006040514e-01    8,222363591e-01
      138511730    2,064726353e-01    8,214151263e-01
      138536168    2,100199312e-01    8,203689456e-01
      138560606    2,151401043e-01    8,191477656e-01
      138585044    2,193180323e-01    8,186422586e-01
      138609482    2,233764082e-01    8,172707558e-01
      138633920    2,281570733e-01    8,159203529e-01
      138658358    2,318006158e-01    8,152667284e-01
      138682796    2,373250574e-01    8,137166500e-01
      138707234    2,410711646e-01    8,124148250e-01
      138731672    2,452189922e-01    8,113368154e-01
      138756109    2,500873208e-01    8,099273443e-01
      138780547    2,539130151e-01    8,086112142e-01
      138804985    2,588005662e-01    8,067080379e-01
      138829423    2,633116841e-01    8,059721589e-01
      138853861    2,676702142e-01    8,037817478e-01
      138878299    2,721929848e-01    8,024993539e-01
      138902737    2,770477533e-01    8,005673885e-01
      138927175    2,813192308e-01    7,990612388e-01
      138951613    2,861608863e-01    7,976155877e-01
      138976051    2,900558114e-01    7,960944176e-01
      139000489    2,946294546e-01    7,941060662e-01
      139024927    2,999613583e-01    7,922539711e-01
      139049365    3,040362000e-01    7,905755043e-01
      139073803    3,086400032e-01    7,886555791e-01
      139098240    3,129280806e-01    7,867753506e-01
      139122678    3,174521923e-01    7,849081755e-01
      139147116    3,220982850e-01    7,831119895e-01
      139171554    3,263265193e-01    7,810825109e-01
      139195992    3,311694562e-01    7,792001963e-01
      139220430    3,358609974e-01    7,770416141e-01
      139244868    3,406719565e-01    7,746538520e-01
      139269306    3,453408182e-01    7,723742127e-01
      139293744    3,494041562e-01    7,702128887e-01
      139318182    3,540485203e-01    7,677544355e-01
      139342620    3,588321209e-01    7,657955289e-01
      139367058    3,629434407e-01    7,631244063e-01
      139391496    3,676319122e-01    7,610705495e-01
      139415934    3,718714118e-01    7,587343454e-01
      139440371    3,768566251e-01    7,561752796e-01
      139464809    3,809493184e-01    7,532812357e-01
      139489247    3,851190209e-01    7,512127757e-01
      139513685    3,901014328e-01    7,486971617e-01
      139538123    3,937656581e-01    7,459196448e-01
      139562561    3,990377486e-01    7,434409857e-01
      139586999    4,036119878e-01    7,404132485e-01
      139611437    4,079143405e-01    7,380655408e-01
      139635875    4,120832682e-01    7,349612117e-01
      139660313    4,162323177e-01    7,328527570e-01
      139684751    4,210908711e-01    7,295709252e-01
      139709189    4,253884554e-01    7,263153791e-01
      139733627    4,292133152e-01    7,236979604e-01
      139758065    4,334977269e-01    7,206650376e-01
      139782502    4,383773208e-01    7,178846002e-01
      139806940    4,424516857e-01    7,147414088e-01
      139831378    4,471469820e-01    7,108741999e-01
      139855816    4,516482353e-01    7,077863216e-01
      139880254    4,557260275e-01    7,041376829e-01
      139904692    4,601756036e-01    7,007941008e-01
      139929130    4,644452035e-01    6,974809766e-01
      139953568    4,688717127e-01    6,943009496e-01
      139978006    4,733927548e-01    6,903223991e-01
      140002444    4,651741683e-01    6,846445203e-01
      140026882    4,690728188e-01    6,809259057e-01
      140051320    4,738187194e-01    6,770392656e-01
      140075758    4,778305590e-01    6,734052300e-01
      140100196    4,816773534e-01    6,699097157e-01
      140124633    4,879322648e-01    6,650001407e-01
      140149071    4,920546412e-01    6,610324979e-01
      140173509    4,965828955e-01    6,563807130e-01
      140197947    5,003622174e-01    6,530448198e-01
      140222385    5,045181513e-01    6,497741938e-01
      140246823    5,084037185e-01    6,457124352e-01
      140271261    5,129357576e-01    6,415871978e-01
      140295699    5,164908767e-01    6,372820139e-01
      140320137    5,204522014e-01    6,334695220e-01
      140344575    5,242359638e-01    6,295402050e-01
      140369013    5,283429623e-01    6,243561506e-01
      140393451    5,312448144e-01    6,204386950e-01
      140417889    5,354655981e-01    6,167179942e-01
      140442326    5,395493507e-01    6,118723154e-01
      140466764    5,433610082e-01    6,074496508e-01
      140491202    5,469200015e-01    6,030138135e-01
      140515640    5,508003831e-01    5,988671780e-01
      140540078    5,543333888e-01    5,939581394e-01
      140564516    5,581519008e-01    5,892855525e-01
      140588954    5,619565845e-01    5,844786763e-01
      140613392    5,652123690e-01    5,796743035e-01
      140637830    5,687974691e-01    5,756903291e-01
      140662268    5,725689530e-01    5,701112747e-01
      140686706    5,758301020e-01    5,657075644e-01
      140711144    5,789284706e-01    5,614143610e-01
      140735582    5,828247070e-01    5,555027723e-01
      140760020    5,855648518e-01    5,507406592e-01
      140784457    5,913190246e-01    5,420038700e-01
      140808895    5,939875841e-01    5,366250277e-01
      140833333    5,969912410e-01    5,323772430e-01
      140857771    6,007381678e-01    5,262550116e-01
      140882209    6,035310030e-01    5,209938288e-01
      140906647    6,062182784e-01    5,156899095e-01
      140931085    6,097735763e-01    5,102822781e-01
      140955523    6,128985286e-01    5,049151182e-01
      140979961    6,156484485e-01    4,988798797e-01
      141004399    6,184499264e-01    4,933115840e-01
      141028837    6,208417416e-01    4,875422716e-01
      141053275    6,229698658e-01    4,819189012e-01
      141077713    6,266604662e-01    4,750687778e-01
      141102151    6,292119622e-01    4,697063565e-01
      141126588    6,312614083e-01    4,638049006e-01
      141151026    6,336074471e-01    4,580783248e-01
      141175464    6,366149783e-01    4,513505399e-01
      141199902    6,387864351e-01    4,450486004e-01
      141224340    6,406811476e-01    4,399146736e-01
      141248778    6,431387663e-01    4,333792627e-01
      141273216    6,452429295e-01    4,262726009e-01
      141297654    6,470574141e-01    4,193349779e-01
      141322092    6,490705609e-01    4,139597416e-01
      141346530    6,510608792e-01    4,072932005e-01
      141370968    6,526792049e-01    4,006713331e-01
      141395406    6,546531320e-01    3,936228752e-01
      141419844    6,560530066e-01    3,878813088e-01
      141444282    6,573139429e-01    3,817341030e-01
      141468719    6,595525146e-01    3,704140484e-01
      141493157    6,613192558e-01    3,644781113e-01
      141517595    6,623407006e-01    3,573709428e-01
      141542033    6,635569334e-01    3,502216339e-01
      141566471    6,643897295e-01    3,443726301e-01
      141590909    6,657342911e-01    3,358937502e-01
      141615347    6,661834717e-01    3,299046755e-01
      141639785    6,667502522e-01    3,230787218e-01
      141664223    6,677820683e-01    3,157469332e-01
      141688661    6,681057215e-01    3,090245426e-01
      141713099    6,682354212e-01    3,011687994e-01
      141737537    6,687455177e-01    2,947390378e-01
      141761975    6,689323187e-01    2,878625989e-01
      141786413    6,691474319e-01    2,796905041e-01
      141810850    6,692988873e-01    2,725690007e-01
      141835288    6,688837409e-01    2,661843300e-01
      141859726    6,688219905e-01    2,584809661e-01
      141884164    6,683474183e-01    2,507912219e-01
      141908602    6,679903269e-01    2,442219853e-01
      141933040    6,670439243e-01    2,362847030e-01
      141957478    6,662984490e-01    2,302170843e-01
      141981916    6,656765938e-01    2,220195234e-01
      142006354    6,649222970e-01    2,139939666e-01
      142030792    6,636639833e-01    2,081709057e-01
      142055230    6,625415087e-01    2,005134374e-01
      142079668    6,612693071e-01    1,929227114e-01
      142104106    6,597888470e-01    1,849906296e-01
      142128543    6,576586962e-01    1,751576662e-01
      142152981    6,556826830e-01    1,686787456e-01
      142177419    6,535787582e-01    1,601828188e-01
      142201857    6,518191695e-01    1,524039507e-01
      142226295    6,500086784e-01    1,463706344e-01
      142250733    6,475465298e-01    1,393252760e-01
      142275171    6,454111934e-01    1,323454082e-01
      142299609    6,431071758e-01    1,250962913e-01
      142324047    6,405758262e-01    1,181999296e-01
      142348485    6,375364065e-01    1,111319065e-01
      142372923    6,350755692e-01    1,047880277e-01
      142397361    6,317457557e-01    9,658683091e-02
      142421799    6,285811663e-01    9,000466019e-02
      142446237    6,256552935e-01    8,425383270e-02
      142470674    6,221236587e-01    7,679565251e-02
      142495112    6,185452938e-01    6,938630342e-02
      142519550    6,150135994e-01    6,336969137e-02
      142543988    6,111689806e-01    5,717334151e-02
      142568426    6,074929833e-01    5,028553680e-02
      142592864    6,033735275e-01    4,329692572e-02
      142617302    5,997207165e-01    3,771363199e-02
      142641740    5,952094197e-01    3,200448677e-02
      142666178    5,909819603e-01    2,523724549e-02
      142690616    5,865831375e-01    1,873768866e-02
      142715054    5,820634365e-01    1,309759635e-02
      142739492    5,770624280e-01    7,176050916e-03
      142763930    5,728781819e-01    1,659822650e-03
      142788368    5,679145455e-01   -4,893242382e-03
      142812805    5,600121021e-01   -1,351840142e-02
      142837243    5,552663803e-01   -1,817514561e-02
      142861681    5,503365397e-01   -2,393895760e-02
      142886119    5,446166992e-01   -2,966286056e-02
      142910557    5,392377377e-01   -3,455308452e-02
      142934995    5,338820219e-01   -3,957174718e-02
      142959433    5,281862020e-01   -4,387224838e-02
      142983871    5,220996141e-01   -4,966089129e-02
      143008309    5,165080428e-01   -5,475706235e-02
      143032747    5,107836723e-01   -5,830950662e-02
      143057185    5,048896074e-01   -6,272800267e-02
      143081623    4,981804490e-01   -6,768241525e-02
      143106061    4,921925962e-01   -7,213868946e-02
      143130499    4,866781831e-01   -7,607830316e-02
      143154936    4,798528254e-01   -7,973006368e-02
      143179374    4,737560153e-01   -8,339240402e-02
      143203812    4,671460688e-01   -8,803185076e-02
      143228250    4,603652060e-01   -9,137222916e-02
      143252688    4,554041326e-01   -9,392204881e-02
      143277126    4,473407269e-01   -9,796388447e-02
      143301564    4,407891333e-01   -1,015640497e-01
      143326002    4,348137677e-01   -1,042443737e-01
      143350440    4,278091788e-01   -1,064147428e-01
      143374878    4,212111533e-01   -1,099182963e-01
      143399316    4,141476750e-01   -1,130999550e-01
      143423754    4,077163339e-01   -1,146818250e-01
      143448192    4,013574719e-01   -1,172385067e-01
      143472630    3,903928697e-01   -1,208792627e-01
      143497067    3,836624324e-01   -1,224668920e-01
      143521505    3,772904873e-01   -1,245530769e-01
      143545943    3,696107268e-01   -1,259385794e-01
      143570381    3,634057641e-01   -1,272287667e-01
      143594819    3,561123013e-01   -1,292044073e-01
      143619257    3,483990431e-01   -1,300217807e-01
      143643695    3,428336680e-01   -1,307236403e-01
      143668133    3,351328373e-01   -1,321609318e-01
      143692571    3,278021216e-01   -1,324754655e-01
      143717009    3,213137686e-01   -1,335600913e-01
      143741447    3,142192066e-01   -1,334130317e-01
      143765885    3,079380989e-01   -1,339483559e-01
      143790323    3,002851903e-01   -1,344264299e-01
      143814761    2,936108112e-01   -1,339224875e-01
      143839198    2,875004411e-01   -1,337888092e-01
      143863636    2,799050212e-01   -1,338047981e-01
      143888074    2,739152908e-01   -1,331312656e-01
      143912512    2,669569850e-01   -1,326868534e-01
      143936950    2,597707212e-01   -1,318809688e-01
      143961388    2,545125484e-01   -1,313167214e-01
      143985826    2,471494675e-01   -1,297819614e-01
      144010264    2,404128313e-01   -1,290045381e-01
      144034702    2,343090475e-01   -1,273543686e-01
      144059140    2,283224910e-01   -1,266401112e-01
      144083578    2,218230963e-01   -1,248224229e-01
      144108016    2,160256356e-01   -1,233131811e-01
      144132454    2,063337862e-01   -1,205975190e-01
      144156891    2,008637190e-01   -1,189162284e-01
      144181329    1,949909925e-01   -1,167737544e-01
      144205767    1,884567440e-01   -1,139406264e-01
      144230205    1,832961291e-01   -1,122960448e-01
      144254643    1,773729920e-01   -1,101198420e-01
      144279081    1,718393266e-01   -1,067843288e-01
      144303519    1,664109230e-01   -1,043475121e-01
      144327957    1,609227657e-01   -1,023227274e-01
      144352395    1,561663747e-01   -9,901568294e-02
      144376833    1,512091756e-01   -9,587135166e-02
      144401271    1,451874077e-01   -9,357084334e-02
      144425709    1,408638656e-01   -9,020769596e-02
      144450147    1,359999776e-01   -8,679459989e-02
      144474585    1,313438714e-01   -8,380905539e-02
      144499022    1,266838312e-01   -8,046893030e-02
      144523460    1,217518151e-01   -7,726761699e-02
      144547898    1,176973805e-01   -7,376033068e-02
      144572336    1,138322651e-01   -7,004211843e-02
      144596774    1,088669077e-01   -6,663568318e-02
      144621212    1,050384790e-01   -6,314735115e-02
      144645650    1,015229672e-01   -5,931065977e-02
      144670088    9,706182778e-02   -5,525092036e-02
      144694526    9,363333136e-02   -5,197484046e-02
      144718964    9,004908800e-02   -4,799439013e-02
      144743402    8,653847873e-02   -4,399815574e-02
      144767840    8,345904946e-02   -4,030843452e-02
      144792278    7,994211465e-02   -3,635669500e-02
      144816716    7,509444654e-02   -3,022503108e-02
      144841153    7,266294956e-02   -2,658159286e-02
      144865591    6,974434108e-02   -2,214362659e-02
      144890029    6,670773029e-02   -1,846949570e-02
      144914467    6,382749230e-02   -1,444514468e-02
      144938905    6,173354760e-02   -1,042811386e-02
      144963343    5,924889445e-02   -6,447292864e-03
      144987781    5,687181279e-02   -2,526000142e-03
      145012219    5,429545790e-02    1,473505981e-03
      145036657    5,272736400e-02    5,501700565e-03
      145061095    5,066148192e-02    9,598506615e-03
      145085533    4,834094271e-02    1,370142587e-02
      145109971    4,674965516e-02    1,774375327e-02
      145134409    4,490926117e-02    2,187594399e-02
      145158847    4,318123311e-02    2,543292567e-02
      145183284    4,185120389e-02    2,992874198e-02
      145207722    4,023232311e-02    3,364107013e-02
      145232160    3,896600381e-02    3,738235310e-02
      145256598    3,783522546e-02    4,137073457e-02
      145281036    3,625253960e-02    4,499936849e-02
      145305474    3,499305248e-02    4,906895757e-02
      145329912    3,466108441e-02    5,270463228e-02
      145354350    3,342587128e-02    5,660323799e-02
      145378788    3,243555501e-02    6,013835967e-02
      145403226    3,162971139e-02    6,409635395e-02
      145427664    3,087542951e-02    6,791320443e-02
      145452102    3,006680310e-02    7,150435448e-02
      145476540    2,924065664e-02    7,700282335e-02
      145500978    2,859744430e-02    8,095349371e-02
      145525415    2,797664329e-02    8,431499451e-02
      145549853    2,776833810e-02    8,785960078e-02
      145574291    2,715682425e-02    9,126861393e-02
      145598729    2,719206735e-02    9,512527287e-02
      145623167    2,647069469e-02    9,858711064e-02
      145647605    2,619137615e-02    1,016662121e-01
      145672043    2,650598064e-02    1,051380709e-01
      145696481    2,588687278e-02    1,090019792e-01
      145720919    2,585684322e-02    1,120737270e-01
      145745357    2,591857687e-02    1,152847558e-01
      145769795    2,570637316e-02    1,189156249e-01
      145794233    2,625712380e-02    1,220378801e-01
      145818671    2,632839046e-02    1,251223832e-01
      145843109    2,588347532e-02    1,285799444e-01
      145867546    2,650568821e-02    1,317693740e-01
      145891984    2,699049190e-02    1,347393692e-01
      145916422    2,677124366e-02    1,381020695e-01
      145940860    2,719420381e-02    1,409712881e-01
      145965298    2,782048099e-02    1,442674249e-01
      145989736    2,840632200e-02    1,473626792e-01
      146014174    2,826232277e-02    1,504819691e-01
      146038612    2,873789519e-02    1,532364190e-01
      146063050    3,011669405e-02    1,558139324e-01
      146087488    3,005214408e-02    1,593136936e-01
      146111926    3,043818474e-02    1,622045785e-01
      146136364    3,196194023e-02    1,646961421e-01
      146160802    3,248009831e-02    1,691133529e-01
      146185239    3,304908052e-02    1,719918549e-01
      146209677    3,419404477e-02    1,748567522e-01
      146234115    3,448845074e-02    1,771979779e-01
      146258553    3,553657606e-02    1,801437289e-01
      146282991    3,665856272e-02    1,827917248e-01
      146307429    3,702901676e-02    1,856504083e-01
      146331867    3,826286644e-02    1,884268373e-01
      146356305    3,942662850e-02    1,907099038e-01
      146380743    4,033232480e-02    1,933868378e-01
      146405181    4,123957455e-02    1,961840093e-01
      146429619    4,205492511e-02    1,985566765e-01
      146454057    4,387505352e-02    2,008621544e-01
      146478495    4,479706287e-02    2,032491863e-01
      146502933    4,523437843e-02    2,063739896e-01
      146527370    4,698002711e-02    2,082742155e-01
      146551808    4,882240668e-02    2,107533514e-01
      146576246    4,939929396e-02    2,134971917e-01
      146600684    5,049081892e-02    2,157427669e-01
      146625122    5,243669450e-02    2,179403454e-01
      146649560    5,340033397e-02    2,203191817e-01
      146673998    5,508437753e-02    2,226751894e-01
      146698436    5,638293549e-02    2,255207300e-01
      146722874    5,763848871e-02    2,271595299e-01
      146747312    5,981837213e-02    2,292448431e-01
      146771750    6,099253893e-02    2,312290967e-01
      146796188    6,222641468e-02    2,332986891e-01
      146820626    6,506412476e-02    2,365340441e-01
      146845064    6,628583372e-02    2,381672859e-01
      146869501    6,802327186e-02    2,400173992e-01
      146893939    6,978048384e-02    2,424143851e-01
      146918377    7,116748393e-02    2,443248332e-01
      146942815    7,333665341e-02    2,458913475e-01
      146967253    7,459137589e-02    2,475612462e-01
      146991691    7,632054389e-02    2,496509999e-01
      147016129    7,847562432e-02    2,511904836e-01
      147040567    7,970222086e-02    2,526701093e-01
      147065005    8,173298091e-02    2,547805309e-01
      147089443    8,350825310e-02    2,564729750e-01
      147113881    8,546185493e-02    2,579526901e-01
      147138319    8,748152852e-02    2,593915164e-01
      147162757    8,906605095e-02    2,610375583e-01
      147187195    9,114487469e-02    2,625092268e-01
      147211632    9,302201867e-02    2,636882663e-01
      147236070    9,453832358e-02    2,651694417e-01
      147260508    9,683588147e-02    2,667861581e-01
      147284946    9,843873978e-02    2,676814497e-01
      147309384    1,003348678e-01    2,697551250e-01
      147333822    1,027514189e-01    2,705138624e-01
      147358260    1,043738946e-01    2,714388669e-01
      147382698    1,064159945e-01    2,727285028e-01
      147407136    1,083489582e-01    2,738747895e-01
      147431574    1,103038564e-01    2,746241689e-01
      147456012    1,123547927e-01    2,756634951e-01
      147480450    1,138375401e-01    2,767503560e-01
      147504888    1,167917401e-01    2,783814073e-01
      147529326    1,188918799e-01    2,789674401e-01
      147553763    1,204920933e-01    2,802636623e-01
      147578201    1,226950288e-01    2,809351087e-01
      147602639    1,245925128e-01    2,816438675e-01
      147627077    1,263503134e-01    2,824779153e-01
      147651515    1,283045113e-01    2,835113406e-01
      147675953    1,302120984e-01    2,838749588e-01
      147700391    1,321245134e-01    2,847946286e-01
      147724829    1,339399815e-01    2,856784463e-01
      147749267    1,357479393e-01    2,861288786e-01
      147773705    1,379474550e-01    2,867163420e-01
      147798143    1,396532953e-01    2,875525653e-01
      147822581    1,413814723e-01    2,879539728e-01
      147847019    1,437367499e-01    2,886323631e-01
      147871457    1,449406743e-01    2,891356647e-01
      147895894    1,468772292e-01    2,895221114e-01
      147920332    1,488828212e-01    2,898896635e-01
      147944770    1,506692469e-01    2,907739878e-01
      147969208    1,522104144e-01    2,910284400e-01
      147993646    1,544264555e-01    2,912197411e-01
      148018084    1,558985263e-01    2,922447026e-01
      148042522    1,575252265e-01    2,923875153e-01
      148066960    1,596414298e-01    2,925813794e-01
      148091398    1,612650752e-01    2,931157351e-01
      148115836    1,627170742e-01    2,939889133e-01
      148140274    1,645769328e-01    2,937691510e-01
      148164712    1,675469577e-01    2,941985726e-01
      148189150    1,689311117e-01    2,942775488e-01
      148213587    1,705819219e-01    2,950628400e-01
      148238025    1,723367572e-01    2,951170802e-01
      148262463    1,740518063e-01    2,955841720e-01
      148286901    1,755981445e-01    2,961409390e-01
      148311339    1,773296148e-01    2,959701717e-01
      148335777    1,790381819e-01    2,962625921e-01
      148360215    1,806271672e-01    2,966922224e-01
      148384653    1,828113198e-01    2,965607643e-01
      148409091    1,841937006e-01    2,967532277e-01
      148433529    1,858660281e-01    2,970175445e-01
      148457967    1,876209080e-01    2,973362803e-01
      148482405    1,893231869e-01    2,970937192e-01
      148506843    1,908749342e-01    2,977187335e-01
      148531281    1,926613450e-01    2,980413437e-01
      148555718    1,944354177e-01    2,980705798e-01
      148580156    1,959366053e-01    2,977364957e-01
      148604594    1,974676549e-01    2,983634770e-01
      148629032    1,994317472e-01    2,981905639e-01
      148653470    2,008027732e-01    2,980863452e-01
      148677908    2,026213109e-01    2,985904813e-01
      148702346    2,042004168e-01    2,984299660e-01
      148726784    2,059921324e-01    2,983963192e-01
      148751222    2,078057230e-01    2,983791530e-01
      148775660    2,092382461e-01    2,984540462e-01
      148800098    2,107629776e-01    2,989420593e-01
      148824536    2,126351297e-01    2,985251248e-01
      148848974    2,153038383e-01    2,983654141e-01
      148873412    2,170482725e-01    2,982773483e-01
      148897849    2,186096311e-01    2,984144390e-01
      148922287    2,204039395e-01    2,982392013e-01
      148946725    2,221532464e-01    2,979811132e-01
      148971163    2,235678434e-01    2,979710400e-01
      148995601    2,252677977e-01    2,979794443e-01
      149020039    2,270889431e-01    2,977497876e-01
      149044477    2,284101695e-01    2,974235117e-01
      149068915    2,303696573e-01    2,974216938e-01
      149093353    2,320901453e-01    2,970849276e-01
      149117791    2,337237000e-01    2,969272137e-01
      149142229    2,352648973e-01    2,966832221e-01
      149166667    2,369373143e-01    2,963856757e-01
      149191105    2,385775894e-01    2,961044312e-01
      149215543    2,397137880e-01    2,961621881e-01
      149239980    2,419068515e-01    2,952832282e-01
      149264418    2,433684170e-01    2,950007021e-01
      149288856    2,449965179e-01    2,951228321e-01
      149313294    2,467609346e-01    2,943999171e-01
      149337732    2,486732304e-01    2,937538624e-01
      149362170    2,497973293e-01    2,939555049e-01
      149386608    2,517222762e-01    2,933240533e-01
      149411046    2,531266212e-01    2,928189933e-01
      149435484    2,548671961e-01    2,927570641e-01
      149459922    2,563420236e-01    2,919105589e-01
      149484360    2,579690814e-01    2,915703952e-01
      149508798    2,603147030e-01    2,906741500e-01
      149533236    2,620896995e-01    2,902429700e-01
      149557674    2,635575831e-01    2,897402942e-01
      149582111    2,650790215e-01    2,890455723e-01
      149606549    2,667057514e-01    2,890513539e-01
      149630987    2,683495283e-01    2,881074548e-01
      149655425    2,696119845e-01    2,876946926e-01
      149679863    2,710486650e-01    2,874355316e-01
      149704301    2,722053826e-01    2,871213257e-01
      149728739    2,741631269e-01    2,856842577e-01
      149753177    2,754121721e-01    2,853749692e-01
      149777615    2,771462202e-01    2,847591043e-01
      149802053    2,785170078e-01    2,840988338e-01
      149826491    2,801502645e-01    2,835009694e-01
      149850929    2,813021839e-01    2,828158736e-01
      149875367    2,829038501e-01    2,821587920e-01
      149899804    2,842716873e-01    2,820163071e-01
      149924242    2,855814397e-01    2,808303833e-01
      149948680    2,870466113e-01    2,801002562e-01
      149973118    2,887646258e-01    2,798800170e-01
      149997556    2,899821401e-01    2,789178193e-01
      150021994    2,912035882e-01    2,780008614e-01
      150046432    2,927499413e-01    2,773084641e-01
      150070870    2,940405309e-01    2,765563726e-01
      150095308    2,954889834e-01    2,761270106e-01
      150119746    2,966544330e-01    2,750584781e-01
      150144184    2,982879281e-01    2,744665444e-01
      150168622    2,994146943e-01    2,739977837e-01
      150193060    3,014285564e-01    2,726752460e-01
      150217498    3,028076887e-01    2,718321383e-01
      150241935    3,039070070e-01    2,712061107e-01
      150266373    3,052258193e-01    2,702563405e-01
      150290811    3,065248430e-01    2,692608237e-01
      150315249    3,079059124e-01    2,690209746e-01
      150339687    3,090383410e-01    2,678887546e-01
      150364125    3,102628589e-01    2,674288154e-01
      150388563    3,116134703e-01    2,665127516e-01
      150413001    3,130736649e-01    2,657669783e-01
      150437439    3,139535785e-01    2,649186254e-01
      150461877    3,155049086e-01    2,638731599e-01
      150486315    3,164870143e-01    2,631449103e-01
      150510753    3,179489374e-01    2,623947263e-01
      150535191    3,191329539e-01    2,615281940e-01
      150559629    3,205301166e-01    2,605915070e-01
      150584066    3,216258585e-01    2,598527968e-01
      150608504    3,229090869e-01    2,588805854e-01
      150632942    3,243673742e-01    2,579088807e-01
      150657380    3,251696527e-01    2,569712400e-01
      150681818    3,264691830e-01    2,557948530e-01
      150706256    3,277513981e-01    2,550458908e-01
      150730694    3,288480639e-01    2,544130385e-01
      150755132    3,299191594e-01    2,536451817e-01
      150779570    3,308865428e-01    2,520083189e-01
      150804008    3,322517276e-01    2,511653006e-01
      150828446    3,335304260e-01    2,505928874e-01
      150852884    3,352604508e-01    2,490473539e-01
      150877322    3,361523747e-01    2,481677085e-01
      150901760    3,375090659e-01    2,471402138e-01
      150926197    3,384799361e-01    2,460660934e-01
      150950635    3,394110501e-01    2,453501523e-01
      150975073    3,407688439e-01    2,442104667e-01
      150999511    3,416179419e-01    2,432198673e-01
      151023949    3,425343037e-01    2,421681285e-01
      151048387    3,436243832e-01    2,411126196e-01
      151072825    3,446790278e-01    2,405571640e-01
      151097263    3,459061980e-01    2,394945025e-01
      151121701    3,468281329e-01    2,384262681e-01
      151146139    3,477719426e-01    2,376476824e-01
      151170577    3,487952352e-01    2,364462912e-01
      151195015    3,494845033e-01    2,350394279e-01
      151219453    3,505511284e-01    2,346839756e-01
      151243891    3,519816995e-01    2,335825264e-01
      151268328    3,529371917e-01    2,325493395e-01
      151292766    3,538433313e-01    2,317942828e-01
      151317204    3,546342850e-01    2,308897972e-01
      151341642    3,557638526e-01    2,296710610e-01
      151366080    3,566713631e-01    2,285917550e-01
      151390518    3,577246666e-01    2,276488692e-01
      151414956    3,585357070e-01    2,268799394e-01
      151439394    3,596054912e-01    2,257911116e-01
      151463832    3,603773415e-01    2,248136997e-01
      151488270    3,615485430e-01    2,237914354e-01
      151512708    3,622705042e-01    2,228669226e-01
      151537146    3,635424972e-01    2,211257666e-01
      151561584    3,646424711e-01    2,198777199e-01
      151586022    3,655152321e-01    2,192761600e-01
      151610459    3,664395213e-01    2,179533839e-01
      151634897    3,674046099e-01    2,167880684e-01
      151659335    3,681367040e-01    2,160772681e-01
      151683773    3,691367507e-01    2,149810493e-01
      151708211    3,699192107e-01    2,137976438e-01
      151732649    3,708504438e-01    2,126974165e-01
      151757087    3,716021776e-01    2,118766457e-01
      151781525    3,722674847e-01    2,108254433e-01
      151805963    3,725801706e-01    2,091992944e-01
      151830401    3,738898039e-01    2,085494846e-01
      151854839    3,744508922e-01    2,077143937e-01
      151879277    3,755002916e-01    2,068124563e-01
      151903715    3,759448826e-01    2,057272047e-01
      151928152    3,768868446e-01    2,047580481e-01
      151952590    3,777133524e-01    2,035795301e-01
      151977028    3,781788051e-01    2,030085921e-01
      152001466    3,792864978e-01    2,020689994e-01
      152025904    3,797724545e-01    2,006363869e-01
      152050342    3,806741834e-01    1,997021437e-01
      152074780    3,816410601e-01    1,989144534e-01
      152099218    3,817695081e-01    1,977204531e-01
      152123656    3,828861415e-01    1,966989636e-01
      152148094    3,837976456e-01    1,957817674e-01
      152172532    3,844094574e-01    1,949665546e-01
      152196970    3,856232166e-01    1,930971742e-01
      152221408    3,861551285e-01    1,920848340e-01
      152245846    3,868655562e-01    1,912362278e-01
      152270283    3,878217340e-01    1,899716854e-01
      152294721    3,885649145e-01    1,890172660e-01
      152319159    3,888928890e-01    1,881743670e-01
      152343597    3,896598518e-01    1,870266199e-01
      152368035    3,904172778e-01    1,860101223e-01
      152392473    3,908903003e-01    1,851545572e-01
      152416911    3,917053044e-01    1,840862036e-01
      152441349    3,927401602e-01    1,829464138e-01
      152465787    3,932969868e-01    1,821077764e-01
      152490225    3,938588202e-01    1,812954992e-01
      152514663    3,947437108e-01    1,802514791e-01
      152539101    3,954170346e-01    1,793333441e-01
      152563539    3,961816430e-01    1,782168895e-01
      152587977    3,965354264e-01    1,773012280e-01
      152612414    3,973577023e-01    1,758867055e-01
      152636852    3,981695175e-01    1,749815643e-01
      152661290    3,986958563e-01    1,741895527e-01
      152685728    3,997208178e-01    1,730852127e-01
      152710166    4,004682600e-01    1,717634052e-01
      152734604    4,010277987e-01    1,707429886e-01
      152759042    4,017987549e-01    1,698564738e-01
      152783480    4,024736285e-01    1,693994254e-01
      152807918    4,030671120e-01    1,675799191e-01
      152832356    4,038233757e-01    1,668963432e-01
      152856794    4,047833681e-01    1,651707292e-01
      152881232    4,055092335e-01    1,642687619e-01
      152905670    4,056897163e-01    1,631022543e-01
      152930108    4,065982103e-01    1,621531993e-01
      152954545    4,071055055e-01    1,610905677e-01
      152978983    4,078671634e-01    1,594433188e-01
      153003421    4,084313512e-01    1,589994729e-01
      153027859    4,091826677e-01    1,577705741e-01
      153052297    4,099010527e-01    1,565600783e-01
      153076735    4,105777740e-01    1,557245255e-01
      153101173    4,112976491e-01    1,544853300e-01
      153125611    4,117972255e-01    1,535601318e-01
      153150049    4,123741984e-01    1,526935250e-01
      153174487    4,130529761e-01    1,512636691e-01
      153198925    4,136197567e-01    1,503711641e-01
      153223363    4,143784344e-01    1,495835334e-01
      153247801    4,150847793e-01    1,481650621e-01
      153272239    4,155941904e-01    1,473824680e-01
      153296676    4,159991741e-01    1,457673907e-01
      153321114    4,167849123e-01    1,450551897e-01
      153345552    4,175516367e-01    1,441802531e-01
      153369990    4,180010855e-01    1,425621510e-01
      153394428    4,187732637e-01    1,416087896e-01
      153418866    4,194115400e-01    1,407548636e-01
      153443304    4,199046195e-01    1,395084858e-01
      153467742    4,206349552e-01    1,386636198e-01
      153492180    4,211703241e-01    1,372907758e-01
      153516618    4,218200445e-01    1,364724338e-01
      153541056    4,227008224e-01    1,347471178e-01
      153565494    4,235544801e-01    1,336882114e-01
      153589932    4,238394201e-01    1,327118576e-01
      153614370    4,247627854e-01    1,316870302e-01
      153638807    4,251716733e-01    1,306518018e-01
      153663245    4,258315563e-01    1,294439286e-01
      153687683    4,264925122e-01    1,283205450e-01
      153712121    4,270053506e-01    1,270797700e-01
      153736559    4,275807738e-01    1,262879670e-01
      153760997    4,283780456e-01    1,251028776e-01
      153785435    4,289059043e-01    1,238616407e-01
      153809873    4,297307432e-01    1,228047386e-01
      153834311    4,301449060e-01    1,216818541e-01
      153858749    4,305813909e-01    1,202698648e-01
      153883187    4,311892390e-01    1,189236119e-01
      153907625    4,318818748e-01    1,183270663e-01
      153932063    4,325513244e-01    1,171708927e-01
      153956500    4,332134128e-01    1,158702746e-01
      153980938    4,333457947e-01    1,146394685e-01
      154005376    4,342262447e-01    1,134276390e-01
      154029814    4,344748855e-01    1,121779978e-01
      154054252    4,352345169e-01    1,114129126e-01
      154078690    4,357795417e-01    1,103822142e-01
      154103128    4,360354245e-01    1,085961834e-01
      154127566    4,368348122e-01    1,077228561e-01
      154152004    4,374777675e-01    1,067966148e-01
      154176442    4,376440346e-01    1,053818539e-01
      154200880    4,388635457e-01    1,041069329e-01
      154225318    4,391281009e-01    1,023150384e-01
      154249756    4,395276010e-01    1,014672443e-01
      154274194    4,402490854e-01    9,987080097e-02
      154298631    4,405757189e-01    9,900502861e-02
      154323069    4,413134754e-01    9,741658717e-02
      154347507    4,417282343e-01    9,659113735e-02
      154371945    4,423310161e-01    9,515057504e-02
      154396383    4,425195158e-01    9,387540817e-02
      154420821    4,433576465e-01    9,295389801e-02
      154445259    4,438890815e-01    9,169938415e-02
      154469697    4,442966580e-01    9,046975523e-02
      154494135    4,446681440e-01    8,962719887e-02
      154518573    4,449870586e-01    8,844728768e-02
      154543011    4,458884895e-01    8,691080660e-02
      154567449    4,458566308e-01    8,600426465e-02
      154591887    4,465614557e-01    8,493488282e-02
      154616325    4,472295046e-01    8,392136544e-02
      154640762    4,476265609e-01    8,238328993e-02
      154665200    4,479895234e-01    8,126777411e-02
      154689638    4,489679039e-01    8,019039035e-02
      154714076    4,490520060e-01    7,866369188e-02
      154738514    4,496889710e-01    7,748761028e-02
      154762952    4,501116574e-01    7,661882043e-02
      154787390    4,507058561e-01    7,529420406e-02
      154811828    4,512796998e-01    7,433573902e-02
      154836266    4,513628781e-01    7,287478447e-02
      154860704    4,516706765e-01    7,154747844e-02
      154885142    4,525268972e-01    6,994710118e-02
      154909580    4,525576234e-01    6,878570467e-02
      154934018    4,530949593e-01    6,766119599e-02
      154958456    4,539669752e-01    6,649029255e-02
      154982893    4,543148279e-01    6,537666172e-02
      155007331    4,547573328e-01    6,370672584e-02
      155031769    4,551279843e-01    6,266795844e-02
      155056207    4,556518197e-01    6,167707592e-02
      155080645    4,559221566e-01    6,052856147e-02
      155105083    4,564396143e-01    5,937277526e-02
      155129521    4,568790197e-01    5,835895240e-02
      155153959    4,575212598e-01    5,687547475e-02
      155178397    4,579083920e-01    5,565987527e-02
      155202835    4,581132829e-01    5,458280444e-02
      155227273    4,588364065e-01    5,295677483e-02
      155251711    4,592627287e-01    5,183859169e-02
      155276149    4,594599903e-01    5,037714541e-02
      155300587    4,595954120e-01    4,916117713e-02
      155325024    4,597748816e-01    4,784143344e-02
      155349462    4,601576328e-01    4,621350020e-02
      155373900    4,608757198e-01    4,565735161e-02
      155398338    4,615572095e-01    4,410130531e-02
      155422776    4,614298046e-01    4,225431383e-02
      155447214    4,620704651e-01    4,150734842e-02
      155471652    4,623506963e-01    4,049053788e-02
      155496090    4,626723230e-01    3,867586702e-02
      155520528    4,627694190e-01    3,743977472e-02
      155544966    4,635902345e-01    3,561676294e-02
      155569404    4,639090002e-01    3,459566087e-02
      155593842    4,643895626e-01    3,338894993e-02
      155618280    4,647345543e-01    3,207693994e-02
      155642717    4,652339518e-01    3,081648424e-02
      155667155    4,657349586e-01    2,953442931e-02
      155691593    4,663653076e-01    2,808884904e-02
      155716031    4,667405486e-01    2,691072971e-02
      155740469    4,669459760e-01    2,528509311e-02
      155764907    4,675629139e-01    2,406115085e-02
      155789345    4,682042599e-01    2,247809432e-02
      155813783    4,685121477e-01    2,076040953e-02
      155838221    4,688167870e-01    1,897805743e-02
      155862659    4,696236253e-01    1,749528944e-02
      155887097    4,698386490e-01    1,632613316e-02
      155911535    4,698672295e-01    1,456880104e-02
      155935973    4,703369141e-01    1,261678897e-02
      155960411    4,707767069e-01    1,139761228e-02
      155984848    4,705733657e-01    9,812708944e-03
      156009286    4,714376926e-01    8,156744763e-03
      156033724    4,719316959e-01    6,636139005e-03
      156058162    4,718056619e-01    4,678878002e-03
      156082600    4,728113711e-01    3,490558825e-03
      156107038    4,731557071e-01    1,832162961e-03
      156131476    4,727863073e-01    1,868475229e-04
      156155914    4,737152755e-01   -1,330190338e-03
      156180352    4,741221666e-01   -2,774847671e-03
      156204790    4,739715159e-01   -4,611807875e-03
      156229228    4,747410715e-01   -6,892848760e-03
      156253666    4,752406180e-01   -8,381333202e-03
      156278104    4,755496085e-01   -9,867496789e-03
      156302542    4,757722020e-01   -1,141865924e-02
      156326979    4,762651920e-01   -1,334179193e-02
      156351417    4,766974151e-01   -1,471047197e-02
      156375855    4,769685268e-01   -1,638708822e-02
      156400293    4,773287773e-01   -1,822229661e-02
      156424731    4,775623381e-01   -2,013182268e-02
      156449169    4,774463773e-01   -2,151652798e-02
      156473607    4,781863093e-01   -2,311846800e-02
      156498045    4,786092043e-01   -2,468355745e-02
      156522483    4,784565568e-01   -2,633352578e-02
      156546921    4,786028862e-01   -2,751526982e-02
      156571359    4,793020487e-01   -2,954580635e-02
      156595797    4,792254269e-01   -3,132008389e-02
      156620235    4,792557359e-01   -3,281872347e-02
      156644673    4,794871509e-01   -3,422285616e-02
      156669110    4,796927571e-01   -3,576277569e-02
      156693548    4,796562195e-01   -3,709537163e-02
      156717986    4,800315797e-01   -3,860224783e-02
      156742424    4,798045158e-01   -4,019350931e-02
      156766862    4,799065888e-01   -4,196204245e-02
      156791300    4,801246822e-01   -4,348434880e-02
      156815738    4,800688326e-01   -4,489068687e-02
      156840176    4,802373052e-01   -4,610678554e-02
      156864614    4,801837802e-01   -4,811579362e-02
      156889052    4,805376530e-01   -5,024905875e-02
      156913490    4,802453518e-01   -5,157046765e-02
      156937928    4,803242981e-01   -5,315401033e-02
      156962366    4,804900885e-01   -5,485864356e-02
      156986804    4,804810286e-01   -5,610320345e-02
      157011241    4,804632962e-01   -5,798265338e-02
      157035679    4,805203974e-01   -5,913244188e-02
      157060117    4,802874923e-01   -6,091306359e-02
      157084555    4,800795913e-01   -6,238744408e-02
      157108993    4,802209735e-01   -6,368403137e-02
      157133431    4,801079929e-01   -6,556801498e-02
      157157869    4,800391197e-01   -6,704366952e-02
      157182307    4,802882671e-01   -6,858971715e-02
      157206745    4,799915254e-01   -7,044553757e-02
      157231183    4,797689915e-01   -7,205253839e-02
      157255621    4,797704518e-01   -7,302982360e-02
      157280059    4,799209237e-01   -7,453507930e-02
      157304497    4,796635807e-01   -7,642371207e-02
      157328935    4,796196818e-01   -7,749134302e-02
      157353372    4,797330797e-01   -7,916861773e-02
      157377810    4,795990586e-01   -8,054188639e-02
      157402248    4,794994593e-01   -8,223987371e-02
      157426686    4,794515073e-01   -8,334781975e-02
      157451124    4,798124731e-01   -8,495850116e-02
      157475562    4,794282615e-01   -8,651219308e-02
      157500000    4,790045619e-01   -8,822669834e-02
