! NanoVNA-App
! Date: 2025-10-15 16:46:44
! Start: 423,5MHz Stop: 448,5MHz Points: 1024
! S-Parameter data: F S11
# Hz S RI R 50
!     Frequency           S11_Real           S11_Imag
      423500000   -2,300519943e-01   -3,545022011e-02
      423524438   -2,292825729e-01   -3,447867557e-02
      423548876   -2,279197872e-01   -3,316225111e-02
      423573314   -2,272348255e-01   -3,309861571e-02
      423597752   -2,270727307e-01   -3,208142519e-02
      423622190   -2,263753414e-01   -3,246657550e-02
      423646628   -2,247354984e-01   -3,154180571e-02
      423671065   -2,248521596e-01   -3,157679364e-02
      423695503   -2,253006548e-01   -3,234620392e-02
      423719941   -2,243886143e-01   -3,289894015e-02
      423744379   -2,232846320e-01   -3,165552393e-02
      423768817   -2,231958061e-01   -3,178633004e-02
      423793255   -2,238909304e-01   -3,304498643e-02
      423817693   -2,239525318e-01   -3,303017840e-02
      423842131   -2,226845324e-01   -3,200433776e-02
      423866569   -2,221356332e-01   -3,140177578e-02
      423891007   -2,229602635e-01   -3,260216117e-02
      423915445   -2,229083031e-01   -3,272841871e-02
      423939883   -2,222648710e-01   -3,117571399e-02
      423964321   -2,208953500e-01   -3,038529307e-02
      423988759   -2,210105658e-01   -3,057508543e-02
      424013196   -2,211155295e-01   -3,110077232e-02
      424037634   -2,202039659e-01   -3,114315495e-02
      424062072   -2,189691812e-01   -2,991875820e-02
      424086510   -2,190227807e-01   -2,982844412e-02
      424110948   -2,198013067e-01   -2,985415794e-02
      424135386   -2,193839252e-01   -2,910182066e-02
      424159824   -2,181817442e-01   -2,777775750e-02
      424184262   -2,177237123e-01   -2,723613568e-02
      424208700   -2,183965147e-01   -2,771605551e-02
      424233138   -2,181146443e-01   -2,731468901e-02
      424257576   -2,169810385e-01   -2,602164820e-02
      424282014   -2,165194750e-01   -2,563621104e-02
      424306452   -2,171387225e-01   -2,536314912e-02
      424330890   -2,170671821e-01   -2,509565465e-02
      424355327   -2,159907520e-01   -2,353812195e-02
      424379765   -2,154621035e-01   -2,303664014e-02
      424404203   -2,155691087e-01   -2,256298065e-02
      424428641   -2,157514989e-01   -2,247951739e-02
      424453079   -2,151119262e-01   -2,178568393e-02
      424477517   -2,142106146e-01   -2,030014060e-02
      424501955   -2,142798752e-01   -2,025171369e-02
      424526393   -2,152470201e-01   -2,026517689e-02
      424550831   -2,145519406e-01   -1,921383664e-02
      424575269   -2,134618610e-01   -1,863902435e-02
      424599707   -2,133461237e-01   -1,849383488e-02
      424624145   -2,138850093e-01   -1,859998330e-02
      424648583   -2,132922113e-01   -1,808525249e-02
      424673021   -2,127065659e-01   -1,768895984e-02
      424697458   -2,121176124e-01   -1,716549508e-02
      424721896   -2,125677764e-01   -1,647716761e-02
      424746334   -2,124123573e-01   -1,657674834e-02
      424770772   -2,121526152e-01   -1,596990973e-02
      424795210   -2,114878893e-01   -1,557550207e-02
      424819648   -2,117867917e-01   -1,547998656e-02
      424844086   -2,119635940e-01   -1,565831341e-02
      424868524   -2,113018781e-01   -1,516685821e-02
      424892962   -2,111537158e-01   -1,447626017e-02
      424917400   -2,114061713e-01   -1,409238577e-02
      424941838   -2,115945518e-01   -1,406375133e-02
      424966276   -2,110412419e-01   -1,416174602e-02
      424990714   -2,107586563e-01   -1,298911870e-02
      425015152   -2,108254433e-01   -1,274537947e-02
      425039589   -2,108343840e-01   -1,259601302e-02
      425064027   -2,105971277e-01   -1,205383427e-02
      425088465   -2,101630121e-01   -1,143155433e-02
      425112903   -2,098691761e-01   -1,106453966e-02
      425137341   -2,105192393e-01   -1,048801374e-02
      425161779   -2,100382894e-01   -1,046137698e-02
      425186217   -2,096250802e-01   -9,322427213e-03
      425210655   -2,093896270e-01   -8,939748630e-03
      425235093   -2,099008858e-01   -8,774224669e-03
      425259531   -2,097418755e-01   -8,497054689e-03
      425283969   -2,090172172e-01   -7,625107653e-03
      425308407   -2,088398933e-01   -7,529946044e-03
      425332845   -2,090789825e-01   -7,268336602e-03
      425357283   -2,087145001e-01   -6,803927943e-03
      425381720   -2,083962262e-01   -6,113016047e-03
      425406158   -2,083379328e-01   -5,140005611e-03
      425430596   -2,082872838e-01   -5,314691924e-03
      425455034   -2,084254473e-01   -5,053482018e-03
      425479472   -2,080303878e-01   -4,438209347e-03
      425503910   -2,076350749e-01   -3,832000308e-03
      425528348   -2,076567411e-01   -3,759969026e-03
      425552786   -2,078397721e-01   -3,072636202e-03
      425577224   -2,074344456e-01   -2,890243195e-03
      425601662   -2,072693408e-01   -2,125467174e-03
      425626100   -2,071041316e-01   -1,511658542e-03
      425650538   -2,069696188e-01   -1,369387843e-03
      425674976   -2,069748640e-01   -8,049746975e-04
      425699413   -2,067801058e-01   -4,218667746e-04
      425723851   -2,064162940e-01   -3,069499508e-04
      425748289   -2,060510516e-01    6,046891212e-04
      425772727   -2,063415647e-01    1,268484630e-03
      425797165   -2,063983679e-01    2,445516177e-03
      425821603   -2,059441358e-01    2,869935706e-03
      425846041   -2,057218403e-01    3,180881962e-03
      425870479   -2,059342265e-01    3,877571784e-03
      425894917   -2,060859501e-01    3,858918324e-03
      425919355   -2,057068944e-01    4,688062705e-03
      425943793   -2,053648531e-01    5,231006071e-03
      425968231   -2,053135037e-01    5,595300347e-03
      425992669   -2,056286931e-01    6,152483635e-03
      426017107   -2,053494900e-01    6,192465313e-03
      426041544   -2,047265172e-01    7,059733383e-03
      426065982   -2,046315819e-01    7,116602734e-03
      426090420   -2,048497200e-01    8,398951963e-03
      426114858   -2,046922743e-01    8,225493133e-03
      426139296   -2,040153742e-01    8,670562878e-03
      426163734   -2,037949562e-01    9,226704016e-03
      426188172   -2,038238645e-01    9,646803141e-03
      426212610   -2,036936879e-01    9,970838204e-03
      426237048   -2,028262615e-01    1,056020893e-02
      426261486   -2,027616650e-01    1,115658414e-02
      426285924   -2,028883696e-01    1,130379457e-02
      426310362   -2,024000287e-01    1,143004932e-02
      426334800   -2,018542588e-01    1,155116130e-02
      426359238   -2,011406869e-01    1,313439105e-02
      426383675   -2,016571164e-01    1,289901976e-02
      426408113   -2,011636496e-01    1,360372826e-02
      426432551   -2,007916868e-01    1,407480054e-02
      426456989   -2,006285638e-01    1,442883257e-02
      426481427   -2,005539238e-01    1,502383035e-02
      426505865   -2,002538592e-01    1,548150647e-02
      426530303   -2,000170052e-01    1,613778993e-02
      426554741   -1,997767687e-01    1,670117863e-02
      426579179   -1,994783729e-01    1,763059944e-02
      426603617   -1,987696886e-01    1,786129549e-02
      426628055   -1,990146339e-01    1,817961782e-02
      426652493   -1,992580295e-01    1,912726834e-02
      426676931   -1,987130940e-01    1,998083293e-02
      426701369   -1,982190609e-01    2,000372112e-02
      426725806   -1,981767863e-01    2,056994848e-02
      426750244   -1,979054064e-01    2,069710195e-02
      426774682   -1,974820942e-01    2,130849287e-02
      426799120   -1,973892450e-01    2,175336704e-02
      426823558   -1,972012222e-01    2,230232395e-02
      426847996   -1,969153136e-01    2,261805534e-02
      426872434   -1,965750605e-01    2,305365913e-02
      426896872   -1,963463873e-01    2,355819382e-02
      426921310   -1,959964633e-01    2,400498651e-02
      426945748   -1,958705783e-01    2,472664416e-02
      426970186   -1,952653676e-01    2,511994913e-02
      426994624   -1,953332573e-01    2,536927909e-02
      427019062   -1,949460804e-01    2,591016144e-02
      427043500   -1,945111454e-01    2,657954954e-02
      427067937   -1,941863745e-01    2,691639587e-02
      427092375   -1,940700561e-01    2,756186575e-02
      427116813   -1,935113519e-01    2,793505043e-02
      427141251   -1,931028366e-01    2,871057764e-02
      427165689   -1,928200573e-01    2,922297642e-02
      427190127   -1,931762844e-01    2,932127751e-02
      427214565   -1,927451938e-01    2,981963009e-02
      427239003   -1,919809580e-01    3,051123768e-02
      427263441   -1,918225586e-01    3,091263771e-02
      427287879   -1,916922778e-01    3,158943728e-02
      427312317   -1,917910427e-01    3,159952164e-02
      427336755   -1,909934282e-01    3,182981163e-02
      427361193   -1,904986948e-01    3,207070380e-02
      427385630   -1,904037893e-01    3,244869038e-02
      427410068   -1,909239739e-01    3,254331648e-02
      427434506   -1,904772222e-01    3,289788216e-02
      427458944   -1,898403913e-01    3,319077566e-02
      427483382   -1,895616055e-01    3,327624127e-02
      427507820   -1,900777221e-01    3,336259350e-02
      427532258   -1,899609864e-01    3,375263885e-02
      427556696   -1,889502704e-01    3,379846737e-02
      427581134   -1,890080273e-01    3,402494639e-02
      427605572   -1,894207597e-01    3,429715335e-02
      427630010   -1,891157031e-01    3,456988558e-02
      427654448   -1,889067590e-01    3,471902385e-02
      427678886   -1,890268028e-01    3,486938402e-02
      427703324   -1,897755563e-01    3,572390601e-02
      427727761   -1,893013716e-01    3,583838046e-02
      427752199   -1,887921095e-01    3,624276444e-02
      427776637   -1,886529475e-01    3,662917763e-02
      427801075   -1,895573139e-01    3,691386804e-02
      427825513   -1,891951710e-01    3,758920729e-02
      427849951   -1,881372035e-01    3,794754297e-02
      427874389   -1,880653799e-01    3,875682503e-02
      427898827   -1,884648204e-01    3,896404803e-02
      427923265   -1,883168072e-01    3,961817175e-02
      427947703   -1,873560399e-01    3,927342966e-02
      427972141   -1,868430376e-01    3,973271325e-02
      427996579   -1,868896186e-01    4,062913731e-02
      428021017   -1,873575151e-01    4,158588499e-02
      428045455   -1,862838268e-01    4,124400392e-02
      428069892   -1,855182648e-01    4,112966359e-02
      428094330   -1,860025823e-01    4,191571474e-02
      428118768   -1,857792437e-01    4,269129410e-02
      428143206   -1,853073686e-01    4,295124859e-02
      428167644   -1,845676303e-01    4,295617342e-02
      428192082   -1,845417023e-01    4,380168766e-02
      428216520   -1,847867072e-01    4,444601387e-02
      428240958   -1,839653552e-01    4,456465319e-02
      428265396   -1,831140220e-01    4,496116564e-02
      428289834   -1,833243668e-01    4,521362111e-02
      428314272   -1,832855642e-01    4,582905397e-02
      428338710   -1,827856004e-01    4,620901495e-02
      428363148   -1,815803051e-01    4,665379971e-02
      428387586   -1,814827174e-01    4,703674093e-02
      428412023   -1,818318218e-01    4,786408693e-02
      428436461   -1,807205230e-01    4,855024070e-02
      428460899   -1,797822714e-01    4,872985184e-02
      428485337   -1,797184497e-01    4,929360747e-02
      428509775   -1,797791421e-01    4,998308048e-02
      428534213   -1,792001724e-01    5,041524023e-02
      428558651   -1,783960909e-01    5,063411593e-02
      428583089   -1,782797128e-01    5,121989176e-02
      428607527   -1,783375889e-01    5,215468258e-02
      428631965   -1,781108081e-01    5,272524804e-02
      428656403   -1,769451648e-01    5,280603468e-02
      428680841   -1,767533422e-01    5,394347012e-02
      428705279   -1,767917126e-01    5,388380960e-02
      428729717   -1,759354770e-01    5,444167554e-02
      428754154   -1,751430184e-01    5,444310606e-02
      428778592   -1,748519093e-01    5,476155877e-02
      428803030   -1,745613217e-01    5,550637841e-02
      428827468   -1,743365824e-01    5,613665655e-02
      428851906   -1,730134785e-01    5,623297766e-02
      428876344   -1,727646291e-01    5,645241588e-02
      428900782   -1,726332605e-01    5,706023052e-02
      428925220   -1,718666852e-01    5,689899251e-02
      428949658   -1,709306538e-01    5,686680228e-02
      428974096   -1,704875678e-01    5,734965578e-02
      428998534   -1,699118316e-01    5,773646757e-02
      429022972   -1,698905230e-01    5,816456676e-02
      429047410   -1,688684672e-01    5,809605122e-02
      429071848   -1,686259806e-01    5,885211751e-02
      429096285   -1,679147184e-01    5,968204886e-02
      429120723   -1,669688225e-01    6,021329015e-02
      429145161   -1,666863859e-01    6,040598825e-02
      429169599   -1,654915214e-01    6,088760495e-02
      429194037   -1,648036689e-01    6,214877218e-02
      429218475   -1,645810008e-01    6,284622848e-02
      429242913   -1,639595181e-01    6,349438429e-02
      429267351   -1,628718674e-01    6,355648488e-02
      429291789   -1,625705957e-01    6,428307295e-02
      429316227   -1,623593867e-01    6,462120265e-02
      429340665   -1,627013981e-01    6,513565779e-02
      429365103   -1,620838046e-01    6,541773677e-02
      429389541   -1,607357115e-01    6,471736729e-02
      429413978   -1,611727774e-01    6,562776119e-02
      429438416   -1,617916524e-01    6,667532772e-02
      429462854   -1,609357744e-01    6,592718512e-02
      429487292   -1,598264575e-01    6,558924913e-02
      429511730   -1,593470722e-01    6,559614092e-02
      429536168   -1,603606492e-01    6,724264473e-02
      429560606   -1,601394862e-01    6,729476154e-02
      429585044   -1,585170925e-01    6,718675792e-02
      429609482   -1,578102857e-01    6,673599035e-02
      429633920   -1,582566500e-01    6,748875976e-02
      429658358   -1,586190760e-01    6,803198159e-02
      429682796   -1,575236768e-01    6,712213904e-02
      429707234   -1,571172178e-01    6,730008125e-02
      429731672   -1,576508880e-01    6,751537323e-02
      429756109   -1,567855626e-01    6,702356786e-02
      429780547   -1,559928954e-01    6,786063313e-02
      429804985   -1,561653614e-01    6,891462952e-02
      429829423   -1,559087932e-01    6,989850104e-02
      429853861   -1,540960073e-01    6,968476623e-02
      429878299   -1,529677957e-01    7,015901059e-02
      429902737   -1,525218487e-01    7,040323317e-02
      429927175   -1,533742398e-01    7,181340456e-02
      429951613   -1,531026661e-01    7,260840386e-02
      429976051   -1,524696946e-01    7,141841203e-02
      430000489   -1,530272216e-01    7,273102552e-02
      430024927   -1,526823342e-01    7,294517010e-02
      430049365   -1,526787430e-01    7,317223400e-02
      430073803   -1,515236497e-01    7,279668748e-02
      430098240   -1,512514800e-01    7,325625420e-02
      430122678   -1,516561806e-01    7,423042506e-02
      430147116   -1,505640000e-01    7,429662347e-02
      430171554   -1,490705758e-01    7,391808182e-02
      430195992   -1,485565901e-01    7,329883426e-02
      430220430   -1,485155523e-01    7,462725043e-02
      430244868   -1,483582854e-01    7,521829009e-02
      430269306   -1,477316916e-01    7,475019991e-02
      430293744   -1,473599523e-01    7,471849024e-02
      430318182   -1,471875161e-01    7,442753762e-02
      430342620   -1,462386996e-01    7,560077310e-02
      430367058   -1,462125480e-01    7,651034743e-02
      430391496   -1,450602859e-01    7,643297315e-02
      430415934   -1,446366310e-01    7,657086849e-02
      430440371   -1,439496875e-01    7,703091949e-02
      430464809   -1,436749399e-01    7,798944414e-02
      430489247   -1,430054605e-01    7,781921327e-02
      430513685   -1,427184641e-01    7,796031237e-02
      430538123   -1,428937167e-01    7,862499356e-02
      430562561   -1,421273947e-01    7,933788747e-02
      430586999   -1,422916651e-01    7,905798405e-02
      430611437   -1,415227056e-01    7,848553360e-02
      430635875   -1,408376843e-01    7,916921377e-02
      430660313   -1,412110031e-01    7,930500805e-02
      430684751   -1,405550241e-01    7,915170491e-02
      430709189   -1,396906376e-01    7,902054489e-02
      430733627   -1,395428330e-01    7,929934561e-02
      430758065   -1,397363245e-01    8,030924201e-02
      430782502   -1,389583200e-01    8,043278754e-02
      430806940   -1,386332363e-01    8,061372489e-02
      430831378   -1,375587881e-01    8,122513443e-02
      430855816   -1,374551654e-01    8,257330954e-02
      430880254   -1,364875883e-01    8,267886192e-02
      430904692   -1,344253421e-01    8,261646330e-02
      430929130   -1,341233850e-01    8,322626352e-02
      430953568   -1,322851628e-01    8,330825716e-02
      430978006   -1,311171651e-01    8,330149949e-02
      431002444   -1,303679347e-01    8,421199024e-02
      431026882   -1,294319928e-01    8,342081308e-02
      431051320   -1,286155283e-01    8,369579166e-02
      431075758   -1,284522563e-01    8,313425630e-02
      431100196   -1,290568560e-01    8,410812914e-02
      431124633   -1,285685301e-01    8,437323570e-02
      431149071   -1,282620728e-01    8,393864334e-02
      431173509   -1,277368367e-01    8,398365229e-02
      431197947   -1,277579367e-01    8,531392366e-02
      431222385   -1,275870800e-01    8,610979468e-02
      431246823   -1,269392371e-01    8,518176526e-02
      431271261   -1,270016134e-01    8,431088924e-02
      431295699   -1,272838861e-01    8,413758129e-02
      431320137   -1,284375042e-01    8,659697324e-02
      431344575   -1,286066175e-01    8,614329249e-02
      431369013   -1,263550669e-01    8,217347413e-02
      431393451   -1,255267560e-01    8,195057511e-02
      431417889   -1,263112128e-01    8,608455211e-02
      431442326   -1,251909435e-01    8,801658452e-02
      431466764   -1,237426847e-01    8,677007258e-02
      431491202   -1,218370795e-01    8,540810645e-02
      431515640   -1,222410053e-01    8,789339662e-02
      431540078   -1,233789921e-01    9,041184187e-02
      431564516   -1,225180030e-01    8,898083121e-02
      431588954   -1,229574978e-01    8,762221783e-02
      431613392   -1,231277138e-01    9,030298144e-02
      431637830   -1,230329350e-01    9,329008311e-02
      431662268   -1,235919297e-01    9,374816716e-02
      431686706   -1,220250577e-01    9,119783342e-02
      431711144   -1,216337234e-01    9,089330584e-02
      431735582   -1,217156649e-01    9,330265969e-02
      431760020   -1,205103695e-01    9,463458508e-02
      431784457   -1,196653172e-01    9,192350507e-02
      431808895   -1,186596602e-01    9,117894620e-02
      431833333   -1,186348796e-01    9,297731519e-02
      431857771   -1,190432608e-01    9,494758397e-02
      431882209   -1,177446023e-01    9,258634597e-02
      431906647   -1,169329807e-01    9,200502932e-02
      431931085   -1,166153178e-01    9,330639243e-02
      431955523   -1,169212013e-01    9,631279111e-02
      431979961   -1,155342609e-01    9,376752377e-02
      432004399   -1,149109825e-01    9,294624627e-02
      432028837   -1,147122383e-01    9,398460388e-02
      432053275   -1,157495901e-01    9,625625610e-02
      432077713   -1,142409891e-01    9,586688876e-02
      432102151   -1,128602326e-01    9,398927540e-02
      432126588   -1,118871570e-01    9,437419474e-02
      432151026   -1,115073115e-01    9,616008401e-02
      432175464   -1,107034087e-01    9,642479569e-02
      432199902   -1,102642864e-01    9,453358501e-02
      432224340   -1,096486598e-01    9,433512390e-02
      432248778   -1,097455844e-01    9,642313421e-02
      432273216   -1,083215550e-01    9,715931118e-02
      432297654   -1,072539762e-01    9,615038335e-02
      432322092   -1,067092940e-01    9,563212842e-02
      432346530   -1,058890074e-01    9,676070511e-02
      432370968   -1,062111408e-01    9,812525660e-02
      432395406   -1,056310236e-01    9,717766196e-02
      432419844   -1,047310829e-01    9,582632780e-02
      432444282   -1,043930203e-01    9,710256755e-02
      432468719   -1,030721664e-01    9,887035191e-02
      432493157   -1,027094126e-01    9,828875214e-02
      432517595   -1,011938453e-01    9,679608792e-02
      432542033   -1,008531600e-01    9,776563197e-02
      432566471   -1,004202813e-01    9,958336502e-02
      432590909   -9,853192419e-02    9,794401377e-02
      432615347   -9,833668172e-02    9,709294140e-02
      432639785   -9,764705598e-02    9,719930589e-02
      432664223   -9,744812548e-02    9,901934862e-02
      432688661   -9,711232781e-02    9,859824181e-02
      432713099   -9,587338567e-02    9,684311599e-02
      432737537   -9,569101036e-02    9,692233056e-02
      432761975   -9,539327770e-02    9,883593023e-02
      432786413   -9,450922906e-02    9,951052070e-02
      432810850   -9,362864494e-02    9,818488359e-02
      432835288   -9,289856255e-02    9,818880260e-02
      432859726   -9,205999970e-02    9,959865361e-02
      432884164   -9,116664529e-02    1,007190868e-01
      432908602   -9,020476788e-02    9,929716587e-02
      432933040   -8,941732347e-02    9,876245260e-02
      432957478   -8,831967413e-02    9,977214038e-02
      432981916   -8,822505176e-02    1,003461480e-01
      433006354   -8,789820969e-02    9,873165935e-02
      433030792   -8,707183599e-02    9,714794159e-02
      433055230   -8,715842664e-02    9,816192836e-02
      433079668   -8,651056886e-02    9,938926250e-02
      433104106   -8,528724313e-02    9,849984944e-02
      433128543   -8,425608277e-02    9,812924266e-02
      433152981   -8,362238109e-02    9,889724851e-02
      433177419   -8,268347383e-02    1,002893299e-01
      433201857   -8,194342256e-02    9,935362637e-02
      433226295   -8,109432459e-02    9,825435281e-02
      433250733   -8,087813109e-02    9,889684618e-02
      433275171   -7,995712757e-02    9,965111315e-02
      433299609   -7,947959006e-02    9,957852960e-02
      433324047   -7,880248129e-02    9,879022092e-02
      433348485   -7,790601254e-02    9,896755219e-02
      433372923   -7,719035447e-02    1,002951860e-01
      433397361   -7,618936896e-02    1,005420759e-01
      433421799   -7,496976852e-02    1,001143456e-01
      433446237   -7,398119569e-02    9,907466918e-02
      433470674   -7,327234745e-02    1,002096683e-01
      433495112   -7,236032188e-02    1,005495936e-01
      433519550   -7,115697116e-02    9,978014976e-02
      433543988   -7,102806866e-02    9,907454997e-02
      433568426   -7,013848424e-02    9,989035875e-02
      433592864   -6,904928386e-02    1,002403051e-01
      433617302   -6,848835945e-02    9,953860939e-02
      433641740   -6,835995615e-02    9,874393046e-02
      433666178   -6,763438880e-02    9,850466251e-02
      433690616   -6,663478911e-02    9,950090200e-02
      433715054   -6,632012129e-02    9,945574403e-02
      433739492   -6,548476219e-02    9,857928753e-02
      433763930   -6,453251839e-02    9,846516699e-02
      433788368   -6,344313174e-02    9,927131236e-02
      433812805   -6,239025667e-02    9,936498106e-02
      433837243   -6,201419979e-02    9,807927907e-02
      433861681   -6,138164178e-02    9,745369852e-02
      433886119   -6,048424169e-02    9,819278866e-02
      433910557   -5,923277885e-02    9,871125221e-02
      433934995   -5,911646783e-02    9,805803001e-02
      433959433   -5,877683312e-02    9,683161974e-02
      433983871   -5,767473206e-02    9,741042554e-02
      434008309   -5,682370439e-02    9,826257825e-02
      434032747   -5,667147413e-02    9,751700610e-02
      434057185   -5,646878481e-02    9,625883400e-02
      434081623   -5,552416667e-02    9,624629468e-02
      434106061   -5,468909815e-02    9,696969390e-02
      434130499   -5,420295149e-02    9,683531523e-02
      434154936   -5,348964781e-02    9,559535980e-02
      434179374   -5,288191512e-02    9,540954232e-02
      434203812   -5,233273283e-02    9,614211321e-02
      434228250   -5,084641278e-02    9,638384730e-02
      434252688   -5,048901960e-02    9,523904324e-02
      434277126   -5,059294403e-02    9,507820010e-02
      434301564   -4,927124083e-02    9,480576217e-02
      434326002   -4,850546271e-02    9,520740062e-02
      434350440   -4,831121862e-02    9,473261237e-02
      434374878   -4,803911224e-02    9,365047514e-02
      434399316   -4,779108986e-02    9,429639578e-02
      434423754   -4,642322659e-02    9,424961358e-02
      434448192   -4,563231021e-02    9,369291365e-02
      434472630   -4,517890885e-02    9,279352427e-02
      434497067   -4,457541555e-02    9,246491641e-02
      434521505   -4,331880435e-02    9,328248352e-02
      434545943   -4,263649508e-02    9,279496223e-02
      434570381   -4,262972623e-02    9,195572883e-02
      434594819   -4,213117808e-02    9,144601971e-02
      434619257   -4,149980098e-02    9,177633375e-02
      434643695   -4,100539535e-02    9,152556956e-02
      434668133   -4,055326432e-02    9,100588411e-02
      434692571   -4,039231688e-02    9,070970118e-02
      434717009   -3,999069333e-02    9,100367129e-02
      434741447   -3,939277679e-02    9,090594947e-02
      434765885   -3,892119974e-02    9,046810120e-02
      434790323   -3,818324581e-02    8,986129612e-02
      434814761   -3,747549281e-02    9,026831388e-02
      434839198   -3,710057214e-02    9,020978212e-02
      434863636   -3,654063866e-02    8,974189311e-02
      434888074   -3,581872582e-02    8,925677836e-02
      434912512   -3,530632704e-02    8,922855556e-02
      434936950   -3,443142027e-02    8,945004642e-02
      434961388   -3,422497585e-02    8,881409466e-02
      434985826   -3,400404006e-02    8,829097450e-02
      435010264   -3,328573704e-02    8,796561509e-02
      435034702   -3,266099840e-02    8,803850412e-02
      435059140   -3,227479011e-02    8,765345812e-02
      435083578   -3,226023912e-02    8,732469380e-02
      435108016   -3,128530085e-02    8,689624816e-02
      435132454   -3,047422320e-02    8,689323068e-02
      435156891   -2,980170399e-02    8,665242791e-02
      435181329   -2,953532711e-02    8,596599102e-02
      435205767   -2,893735841e-02    8,611668646e-02
      435230205   -2,833712846e-02    8,640322834e-02
      435254643   -2,774162591e-02    8,567139506e-02
      435279081   -2,753579989e-02    8,503932506e-02
      435303519   -2,672676370e-02    8,505052328e-02
      435327957   -2,587196976e-02    8,504468203e-02
      435352395   -2,596154064e-02    8,508054167e-02
      435376833   -2,559535950e-02    8,402176201e-02
      435401271   -2,514118329e-02    8,354047686e-02
      435425709   -2,434302121e-02    8,362525702e-02
      435450147   -2,397785336e-02    8,342228830e-02
      435474585   -2,351045236e-02    8,247189224e-02
      435499022   -2,321560308e-02    8,219124377e-02
      435523460   -2,275156602e-02    8,239696920e-02
      435547898   -2,184160054e-02    8,204320818e-02
      435572336   -2,157158032e-02    8,136670291e-02
      435596774   -2,141907066e-02    8,128866553e-02
      435621212   -2,062848955e-02    8,107856661e-02
      435645650   -1,970443875e-02    8,101107180e-02
      435670088   -1,942468435e-02    8,029400557e-02
      435694526   -1,864369959e-02    7,988008112e-02
      435718964   -1,843381301e-02    7,984276861e-02
      435743402   -1,773327589e-02    7,962016761e-02
      435767840   -1,728672162e-02    7,944817841e-02
      435792278   -1,668180153e-02    7,889053226e-02
      435816716   -1,581935957e-02    7,819613069e-02
      435841153   -1,544326916e-02    7,850954682e-02
      435865591   -1,476210728e-02    7,770761102e-02
      435890029   -1,460513100e-02    7,709255815e-02
      435914467   -1,399774477e-02    7,710641623e-02
      435938905   -1,309472322e-02    7,656683773e-02
      435963343   -1,303014159e-02    7,638309151e-02
      435987781   -1,241172850e-02    7,568903267e-02
      436012219   -1,198209450e-02    7,530310750e-02
      436036657   -1,152818277e-02    7,513111085e-02
      436061095   -1,097064465e-02    7,473935932e-02
      436085533   -1,088066399e-02    7,423837483e-02
      436109971   -1,018109918e-02    7,396362722e-02
      436134409   -9,555544704e-03    7,366494834e-02
      436158847   -9,175278246e-03    7,346983999e-02
      436183284   -8,553601801e-03    7,295153290e-02
      436207722   -8,282944560e-03    7,274478674e-02
      436232160   -7,523670793e-03    7,264464349e-02
      436256598   -6,939731538e-03    7,225609571e-02
      436281036   -6,583828479e-03    7,184227556e-02
      436305474   -5,967836827e-03    7,149095833e-02
      436329912   -5,608305335e-03    7,117414474e-02
      436354350   -4,783786833e-03    7,095180452e-02
      436378788   -4,646822810e-03    7,017969340e-02
      436403226   -4,266176373e-03    6,983532012e-02
      436427664   -3,897763789e-03    6,959030777e-02
      436452102   -3,094874322e-03    6,918038428e-02
      436476540   -2,480655909e-03    6,815031171e-02
      436500978   -2,388354391e-03    6,789256632e-02
      436525415   -1,798409969e-03    6,752941012e-02
      436549853   -1,069355756e-03    6,698107719e-02
      436574291   -8,249543607e-04    6,665444374e-02
      436598729   -4,045367241e-04    6,624038517e-02
      436623167    1,436620951e-04    6,557601690e-02
      436647605    7,667392492e-04    6,544066966e-02
      436672043    1,431059092e-03    6,472907215e-02
      436696481    1,634646207e-03    6,450910866e-02
      436720919    2,168875188e-03    6,406560540e-02
      436745357    2,759326249e-03    6,349916756e-02
      436769795    3,038205206e-03    6,337349862e-02
      436794233    3,529440612e-03    6,236703321e-02
      436818671    3,825344145e-03    6,217561290e-02
      436843109    4,775620997e-03    6,166166067e-02
      436867546    5,111280829e-03    6,114921719e-02
      436891984    5,470249802e-03    6,083138660e-02
      436916422    5,826599896e-03    6,037276611e-02
      436940860    6,336703897e-03    5,993630737e-02
      436965298    7,022179663e-03    5,948824435e-02
      436989736    7,582914084e-03    5,900576338e-02
      437014174    7,584903389e-03    5,853845179e-02
      437038612    8,113380522e-03    5,821513385e-02
      437063050    8,589357138e-03    5,776216090e-02
      437087488    9,226474911e-03    5,714177340e-02
      437111926    9,506918490e-03    5,651545152e-02
      437136364    9,713817388e-03    5,618549883e-02
      437160802    1,040350646e-02    5,544728041e-02
      437185239    1,096381247e-02    5,505249277e-02
      437209677    1,124350727e-02    5,440740287e-02
      437234115    1,163519546e-02    5,397613347e-02
      437258553    1,200296171e-02    5,351481587e-02
      437282991    1,257535256e-02    5,297224969e-02
      437307429    1,305975392e-02    5,247678608e-02
      437331867    1,314077340e-02    5,190438032e-02
      437356305    1,354584470e-02    5,148286745e-02
      437380743    1,397891715e-02    5,116773769e-02
      437405181    1,471958868e-02    5,020954460e-02
      437429619    1,481584646e-02    4,983497411e-02
      437454057    1,523901522e-02    4,937842861e-02
      437478495    1,576130651e-02    4,886613041e-02
      437502933    1,591041125e-02    4,859825224e-02
      437527370    1,632417552e-02    4,765832424e-02
      437551808    1,671625301e-02    4,713851213e-02
      437576246    1,693126187e-02    4,688877612e-02
      437600684    1,728246175e-02    4,614916816e-02
      437625122    1,753475145e-02    4,555270821e-02
      437649560    1,779345237e-02    4,525071010e-02
      437673998    1,805998571e-02    4,469478875e-02
      437698436    1,869140938e-02    4,404617101e-02
      437722874    1,874638163e-02    4,383062571e-02
      437747312    1,929815672e-02    4,340988398e-02
      437771750    1,977773942e-02    4,286121577e-02
      437796188    1,994734816e-02    4,213549942e-02
      437820626    2,059445344e-02    4,171074182e-02
      437845064    2,114141732e-02    4,096072912e-02
      437869501    2,182299644e-02    4,016445577e-02
      437893939    2,189409547e-02    3,999443725e-02
      437918377    2,199658751e-02    3,962324560e-02
      437942815    2,255702950e-02    3,872580826e-02
      437967253    2,312523685e-02    3,826607019e-02
      437991691    2,300011367e-02    3,770039976e-02
      438016129    2,310548164e-02    3,739800677e-02
      438040567    2,370405197e-02    3,660069779e-02
      438065005    2,362847328e-02    3,610881045e-02
      438089443    2,432701737e-02    3,532334417e-02
      438113881    2,426783182e-02    3,538520262e-02
      438138319    2,473866381e-02    3,435262293e-02
      438162757    2,513343468e-02    3,368149698e-02
      438187195    2,544282004e-02    3,323243186e-02
      438211632    2,590964548e-02    3,267740458e-02
      438236070    2,556719072e-02    3,248418868e-02
      438260508    2,664221078e-02    3,161740303e-02
      438284946    2,671153471e-02    3,113611042e-02
      438309384    2,689385042e-02    3,055287898e-02
      438333822    2,706896141e-02    2,991559729e-02
      438358260    2,737896144e-02    2,922434360e-02
      438382698    2,771368250e-02    2,890299819e-02
      438407136    2,797608823e-02    2,807310596e-02
      438431574    2,830385044e-02    2,756877989e-02
      438456012    2,828567103e-02    2,702029422e-02
      438480450    2,886351198e-02    2,654023282e-02
      438504888    2,946444042e-02    2,549689263e-02
      438529326    2,947823331e-02    2,488276176e-02
      438553763    2,996227518e-02    2,435222454e-02
      438578201    3,030588478e-02    2,379741147e-02
      438602639    3,049807250e-02    2,309995890e-02
      438627077    3,078463674e-02    2,245662361e-02
      438651515    3,076067939e-02    2,222028933e-02
      438675953    3,134218231e-02    2,138040215e-02
      438700391    3,148499876e-02    2,070976421e-02
      438724829    3,181098774e-02    2,031652816e-02
      438749267    3,186720982e-02    1,971933432e-02
      438773705    3,207072616e-02    1,904368028e-02
      438798143    3,263218701e-02    1,860760525e-02
      438822581    3,265452757e-02    1,777664572e-02
      438847019    3,286499158e-02    1,712547988e-02
      438871457    3,307414427e-02    1,644901559e-02
      438895894    3,319253772e-02    1,594722643e-02
      438920332    3,365929052e-02    1,522522606e-02
      438944770    3,369566426e-02    1,476660091e-02
      438969208    3,361715749e-02    1,417544391e-02
      438993646    3,392883763e-02    1,356385835e-02
      439018084    3,422812745e-02    1,307782438e-02
      439042522    3,447746113e-02    1,229626406e-02
      439066960    3,475929424e-02    1,135619264e-02
      439091398    3,496276960e-02    1,105502713e-02
      439115836    3,518015891e-02    1,037393790e-02
      439140274    3,532230854e-02    9,703587741e-03
      439164712    3,566132858e-02    8,789552376e-03
      439189150    3,596932441e-02    8,511497639e-03
      439213587    3,598814085e-02    7,630869746e-03
      439238025    3,625714779e-02    6,754161790e-03
      439262463    3,629294410e-02    6,470621563e-03
      439286901    3,638196737e-02    5,853326060e-03
      439311339    3,669001535e-02    5,048518069e-03
      439335777    3,655618429e-02    4,619278945e-03
      439360215    3,682595864e-02    3,886767663e-03
      439384653    3,693986684e-02    3,330234438e-03
      439409091    3,697673976e-02    2,667704597e-03
      439433529    3,691864386e-02    2,081036568e-03
      439457967    3,733386844e-02    1,681427471e-03
      439482405    3,718210012e-02    7,869666442e-04
      439506843    3,740156069e-02    2,048527822e-04
      439531281    3,746269271e-02   -2,856217325e-04
      439555718    3,763575479e-02   -7,504178211e-04
      439580156    3,758767247e-02   -1,628823578e-03
      439604594    3,797388077e-02   -2,032126300e-03
      439629032    3,786459565e-02   -2,942861058e-03
      439653470    3,815800697e-02   -3,377719782e-03
      439677908    3,823293746e-02   -4,223729484e-03
      439702346    3,816972673e-02   -4,761540331e-03
      439726784    3,848122060e-02   -5,378107540e-03
      439751222    3,843568265e-02   -6,051591597e-03
      439775660    3,839485720e-02   -6,670808420e-03
      439800098    3,849811852e-02   -7,292194292e-03
      439824536    3,871900588e-02   -7,778326981e-03
      439848974    3,872814402e-02   -8,599329740e-03
      439873412    3,874378651e-02   -9,271099232e-03
      439897849    3,894528374e-02   -9,947420098e-03
      439922287    3,915939108e-02   -1,062447578e-02
      439946725    3,930494934e-02   -1,133486442e-02
      439971163    3,920379654e-02   -1,189526077e-02
      439995601    3,976030648e-02   -1,256460324e-02
      440020039    3,952377290e-02   -1,294356491e-02
      440044477    3,963518515e-02   -1,366197970e-02
      440068915    3,935090452e-02   -1,436286606e-02
      440093353    3,969683498e-02   -1,489416230e-02
      440117791    3,946239501e-02   -1,560281869e-02
      440142229    3,972923011e-02   -1,619707048e-02
      440166667    3,950767964e-02   -1,691555232e-02
      440191105    3,951456398e-02   -1,747652516e-02
      440215543    3,957815468e-02   -1,805642061e-02
      440239980    3,961963952e-02   -1,880253479e-02
      440264418    3,960924968e-02   -1,967075281e-02
      440288856    3,988397866e-02   -2,001887001e-02
      440313294    3,997922689e-02   -2,095219307e-02
      440337732    3,996174410e-02   -2,172012441e-02
      440362170    3,968154266e-02   -2,212799899e-02
      440386608    3,980480880e-02   -2,289392613e-02
      440411046    4,007233307e-02   -2,357620373e-02
      440435484    3,990721703e-02   -2,405651100e-02
      440459922    3,999442235e-02   -2,480743080e-02
      440484360    3,994546458e-02   -2,539995313e-02
      440508798    4,015902057e-02   -2,601729520e-02
      440533236    4,006274790e-02   -2,699171007e-02
      440557674    4,000573978e-02   -2,745671570e-02
      440582111    3,987352923e-02   -2,815780975e-02
      440606549    4,003231227e-02   -2,882999554e-02
      440630987    3,994759545e-02   -2,945352346e-02
      440655425    3,992297128e-02   -3,004178591e-02
      440679863    3,998678178e-02   -3,079885989e-02
      440704301    3,976703063e-02   -3,131968528e-02
      440728739    3,988075256e-02   -3,203623742e-02
      440753177    3,986120597e-02   -3,256710246e-02
      440777615    3,980621696e-02   -3,325956687e-02
      440802053    3,964094818e-02   -3,398177773e-02
      440826491    3,981294483e-02   -3,477000445e-02
      440850929    3,949046880e-02   -3,555110842e-02
      440875367    3,957046941e-02   -3,605731577e-02
      440899804    3,941944614e-02   -3,681801260e-02
      440924242    3,956628963e-02   -3,738343343e-02
      440948680    3,936304525e-02   -3,782405704e-02
      440973118    3,912439570e-02   -3,854569420e-02
      440997556    3,937790170e-02   -3,930754215e-02
      441021994    3,924977779e-02   -3,994788975e-02
      441046432    3,909560293e-02   -4,059104994e-02
      441070870    3,912048042e-02   -4,128520936e-02
      441095308    3,908090666e-02   -4,153555259e-02
      441119746    3,909788653e-02   -4,214861989e-02
      441144184    3,894394264e-02   -4,332794622e-02
      441168622    3,881007060e-02   -4,382986948e-02
      441193060    3,884555399e-02   -4,467424005e-02
      441217498    3,896847367e-02   -4,554473236e-02
      441241935    3,818040714e-02   -4,608485103e-02
      441266373    3,850615025e-02   -4,661936313e-02
      441290811    3,857642040e-02   -4,738659412e-02
      441315249    3,857819736e-02   -4,822656512e-02
      441339687    3,830478713e-02   -4,884134606e-02
      441364125    3,822927549e-02   -4,974891245e-02
      441388563    3,777042776e-02   -5,035118759e-02
      441413001    3,836171702e-02   -5,072299391e-02
      441437439    3,803082556e-02   -5,152279884e-02
      441461877    3,796046972e-02   -5,245927721e-02
      441486315    3,748831898e-02   -5,315209925e-02
      441510753    3,772335500e-02   -5,349554867e-02
      441535191    3,762501106e-02   -5,411252379e-02
      441559629    3,733504191e-02   -5,483797193e-02
      441584066    3,717190027e-02   -5,552466959e-02
      441608504    3,721436858e-02   -5,589972436e-02
      441632942    3,691193834e-02   -5,687161535e-02
      441657380    3,675643727e-02   -5,727306008e-02
      441681818    3,708694875e-02   -5,807503685e-02
      441706256    3,655532002e-02   -5,902482197e-02
      441730694    3,656489775e-02   -5,954680592e-02
      441755132    3,631356731e-02   -6,024500355e-02
      441779570    3,621609136e-02   -6,120122597e-02
      441804008    3,615660220e-02   -6,180969626e-02
      441828446    3,582978994e-02   -6,253790110e-02
      441852884    3,593257070e-02   -6,344807893e-02
      441877322    3,578962013e-02   -6,411635131e-02
      441901760    3,568996862e-02   -6,475235522e-02
      441926197    3,545125946e-02   -6,550572813e-02
      441950635    3,522824124e-02   -6,634659320e-02
      441975073    3,509113193e-02   -6,680361181e-02
      441999511    3,508525714e-02   -6,787750125e-02
      442023949    3,463048488e-02   -6,870734692e-02
      442048387    3,476991132e-02   -6,957025826e-02
      442072825    3,447736427e-02   -7,000341266e-02
      442097263    3,389929235e-02   -7,085399330e-02
      442121701    3,373830765e-02   -7,170520723e-02
      442146139    3,347189724e-02   -7,203279436e-02
      442170577    3,325971588e-02   -7,307557017e-02
      442195015    3,250323236e-02   -7,376150787e-02
      442219453    3,240557760e-02   -7,439585775e-02
      442243891    3,259347379e-02   -7,497183979e-02
      442268328    3,207927942e-02   -7,602030039e-02
      442292766    3,183822334e-02   -7,677878439e-02
      442317204    3,142853454e-02   -7,760010660e-02
      442341642    3,153901920e-02   -7,850570977e-02
      442366080    3,097220510e-02   -7,928080857e-02
      442390518    3,100054711e-02   -8,014257252e-02
      442414956    3,041006252e-02   -8,074060827e-02
      442439394    3,021426313e-02   -8,161933720e-02
      442463832    3,033543564e-02   -8,222497255e-02
      442488270    2,975427732e-02   -8,309718966e-02
      442512708    2,928829193e-02   -8,394956589e-02
      442537146    2,887044847e-02   -8,494216204e-02
      442561584    2,869259380e-02   -8,532152325e-02
      442586022    2,810270712e-02   -8,632230759e-02
      442610459    2,718853019e-02   -8,729766309e-02
      442634897    2,705513686e-02   -8,804276586e-02
      442659335    2,687172033e-02   -8,858118951e-02
      442683773    2,651106566e-02   -8,938394487e-02
      442708211    2,612402290e-02   -9,012840688e-02
      442732649    2,561036497e-02   -9,110553563e-02
      442757087    2,551055513e-02   -9,174565971e-02
      442781525    2,545140311e-02   -9,273087978e-02
      442805963    2,482628636e-02   -9,328319132e-02
      442830401    2,483542822e-02   -9,419018030e-02
      442854839    2,455314063e-02   -9,497626126e-02
      442879277    2,447420545e-02   -9,550790489e-02
      442903715    2,390181273e-02   -9,623815864e-02
      442928152    2,328724414e-02   -9,683054686e-02
      442952590    2,340547182e-02   -9,733606875e-02
      442977028    2,244626917e-02   -9,803201258e-02
      443001466    2,171492390e-02   -9,861715138e-02
      443025904    2,153643221e-02   -9,931378067e-02
      443050342    2,154397592e-02   -1,000418216e-01
      443074780    2,098228596e-02   -1,008588225e-01
      443099218    2,033403888e-02   -1,012748182e-01
      443123656    1,965789683e-02   -1,015315577e-01
      443148094    1,977341436e-02   -1,023670807e-01
      443172532    1,948562637e-02   -1,029589251e-01
      443196970    1,879151352e-02   -1,036425829e-01
      443221408    1,821959205e-02   -1,044043526e-01
      443245846    1,814963669e-02   -1,049854904e-01
      443270283    1,796374470e-02   -1,053982899e-01
      443294721    1,744397730e-02   -1,061561853e-01
      443319159    1,700658537e-02   -1,067164093e-01
      443343597    1,689680293e-02   -1,074978486e-01
      443368035    1,706769131e-02   -1,078438535e-01
      443392473    1,673893072e-02   -1,084315181e-01
      443416911    1,622167230e-02   -1,092677861e-01
      443441349    1,619548351e-02   -1,097714752e-01
      443465787    1,603274234e-02   -1,105922312e-01
      443490225    1,550344005e-02   -1,113597751e-01
      443514663    1,496343501e-02   -1,124031618e-01
      443539101    1,482554898e-02   -1,127072200e-01
      443563539    1,457936876e-02   -1,134088635e-01
      443587977    1,366884075e-02   -1,136223972e-01
      443612414    1,299012080e-02   -1,140719876e-01
      443636852    1,247387193e-02   -1,148458570e-01
      443661290    1,226324402e-02   -1,156785786e-01
      443685728    1,167881675e-02   -1,165791750e-01
      443710166    1,066351309e-02   -1,172594652e-01
      443734604    1,030966640e-02   -1,173852682e-01
      443759042    1,009690389e-02   -1,181135401e-01
      443783480    1,004427671e-02   -1,188656092e-01
      443807918    8,524715900e-03   -1,194737703e-01
      443832356    8,660893887e-03   -1,195753887e-01
      443856794    8,334498852e-03   -1,206076592e-01
      443881232    7,860284299e-03   -1,213405803e-01
      443905670    7,472842932e-03   -1,215290576e-01
      443930108    6,550561637e-03   -1,221417859e-01
      443954545    6,508819759e-03   -1,232025847e-01
      443978983    5,720049143e-03   -1,233680546e-01
      444003421    5,041472614e-03   -1,236154959e-01
      444027859    4,233811051e-03   -1,249175817e-01
      444052297    3,666449338e-03   -1,251224279e-01
      444076735    3,636874259e-03   -1,261532456e-01
      444101173    2,273418009e-03   -1,266128868e-01
      444125611    2,206861973e-03   -1,272034645e-01
      444150049    1,022141427e-03   -1,275286376e-01
      444174487    1,046195626e-03   -1,283494830e-01
      444198925    3,878884017e-04   -1,288249493e-01
      444223363   -4,776045680e-04   -1,291275918e-01
      444247801   -2,174712718e-04   -1,296934634e-01
      444272239   -1,943368465e-03   -1,309266537e-01
      444296676   -1,863658428e-03   -1,315614730e-01
      444321114   -2,744968981e-03   -1,319172084e-01
      444345552   -3,366418183e-03   -1,324223131e-01
      444369990   -3,585606813e-03   -1,328646690e-01
      444394428   -4,056021571e-03   -1,335612684e-01
      444418866   -5,012009293e-03   -1,339393407e-01
      444443304   -5,783323199e-03   -1,349194795e-01
      444467742   -5,849599838e-03   -1,351154447e-01
      444492180   -6,200239062e-03   -1,358193606e-01
      444516618   -7,277037948e-03   -1,365028322e-01
      444541056   -8,304804564e-03   -1,369782686e-01
      444565494   -8,576203138e-03   -1,374280900e-01
      444589932   -8,477345109e-03   -1,380304843e-01
      444614370   -1,055112109e-02   -1,383313835e-01
      444638807   -1,056005806e-02   -1,390820593e-01
      444663245   -1,131797209e-02   -1,396520287e-01
      444687683   -1,130133867e-02   -1,401002258e-01
      444712121   -1,228658110e-02   -1,403136402e-01
      444736559   -1,284994930e-02   -1,408302784e-01
      444760997   -1,337425783e-02   -1,418637782e-01
      444785435   -1,439685747e-02   -1,420125663e-01
      444809873   -1,494470611e-02   -1,423462033e-01
      444834311   -1,588553935e-02   -1,427747458e-01
      444858749   -1,637290791e-02   -1,434632689e-01
      444883187   -1,694274694e-02   -1,439891309e-01
      444907625   -1,759269461e-02   -1,442584097e-01
      444932063   -1,826827973e-02   -1,444161087e-01
      444956500   -1,942983270e-02   -1,446761340e-01
      444980938   -1,927180216e-02   -1,453908384e-01
      445005376   -2,031438425e-02   -1,458187550e-01
      445029814   -2,066894248e-02   -1,461956501e-01
      445054252   -2,147475630e-02   -1,464535296e-01
      445078690   -2,207293734e-02   -1,468081325e-01
      445103128   -2,267803997e-02   -1,474354267e-01
      445127566   -2,348741516e-02   -1,476511955e-01
      445152004   -2,407537028e-02   -1,479838490e-01
      445176442   -2,463562787e-02   -1,483915597e-01
      445200880   -2,498956397e-02   -1,489974260e-01
      445225318   -2,622138709e-02   -1,490427703e-01
      445249756   -2,667608112e-02   -1,498869359e-01
      445274194   -2,724334598e-02   -1,503157169e-01
      445298631   -2,778083459e-02   -1,505298615e-01
      445323069   -2,867586911e-02   -1,507663727e-01
      445347507   -2,942673862e-02   -1,512349248e-01
      445371945   -2,977260947e-02   -1,517352164e-01
      445396383   -3,018203378e-02   -1,524857432e-01
      445420821   -3,135314211e-02   -1,524001360e-01
      445445259   -3,187496215e-02   -1,525489986e-01
      445469697   -3,239756078e-02   -1,530264169e-01
      445494135   -3,334758058e-02   -1,535014659e-01
      445518573   -3,388543800e-02   -1,537754834e-01
      445543011   -3,425923735e-02   -1,539273411e-01
      445567449   -3,563711792e-02   -1,547610760e-01
      445591887   -3,604586422e-02   -1,548970491e-01
      445616325   -3,646157682e-02   -1,546858400e-01
      445640762   -3,768509254e-02   -1,549507380e-01
      445665200   -3,806675598e-02   -1,559707820e-01
      445689638   -3,855529428e-02   -1,560350806e-01
      445714076   -3,947669268e-02   -1,561129540e-01
      445738514   -4,011623561e-02   -1,562085003e-01
      445762952   -4,098718241e-02   -1,569996774e-01
      445787390   -4,149531573e-02   -1,572140306e-01
      445811828   -4,281038418e-02   -1,572846621e-01
      445836266   -4,352643341e-02   -1,575505137e-01
      445860704   -4,388499632e-02   -1,579206437e-01
      445885142   -4,520350695e-02   -1,582314074e-01
      445909580   -4,593015090e-02   -1,587335020e-01
      445934018   -4,679825529e-02   -1,587740481e-01
      445958456   -4,759600013e-02   -1,590445042e-01
      445982893   -4,827059060e-02   -1,592416763e-01
      446007331   -4,945328832e-02   -1,596867293e-01
      446031769   -4,972351342e-02   -1,597850770e-01
      446056207   -5,026357621e-02   -1,602659374e-01
      446080645   -5,121002346e-02   -1,605827510e-01
      446105083   -5,213330314e-02   -1,607139111e-01
      446129521   -5,264335126e-02   -1,612414718e-01
      446153959   -5,390583351e-02   -1,613513827e-01
      446178397   -5,429857224e-02   -1,619281024e-01
      446202835   -5,514607206e-02   -1,620960236e-01
      446227273   -5,585254356e-02   -1,622985452e-01
      446251711   -5,653699487e-02   -1,628573686e-01
      446276149   -5,672413111e-02   -1,625550240e-01
      446300587   -5,777287111e-02   -1,630908549e-01
      446325024   -5,919798836e-02   -1,632364243e-01
      446349462   -5,950598419e-02   -1,635069102e-01
      446373900   -6,007886305e-02   -1,634400636e-01
      446398338   -6,138913333e-02   -1,643664837e-01
      446422776   -6,143237650e-02   -1,641577035e-01
      446447214   -6,244520843e-02   -1,646343470e-01
      446471652   -6,314258277e-02   -1,646383554e-01
      446496090   -6,397747993e-02   -1,649613827e-01
      446520528   -6,410589814e-02   -1,650989950e-01
      446544966   -6,595970690e-02   -1,661349684e-01
      446569404   -6,692342460e-02   -1,663377732e-01
      446593842   -6,734485924e-02   -1,664754003e-01
      446618280   -6,857240200e-02   -1,667515486e-01
      446642717   -6,898891181e-02   -1,675350070e-01
      446667155   -7,033009827e-02   -1,675521731e-01
      446691593   -7,145172358e-02   -1,680332720e-01
      446716031   -7,244242728e-02   -1,682556421e-01
      446740469   -7,354497910e-02   -1,683055013e-01
      446764907   -7,434152067e-02   -1,683619767e-01
      446789345   -7,487350702e-02   -1,683551818e-01
      446813783   -7,559767365e-02   -1,685050279e-01
      446838221   -7,659842074e-02   -1,684480757e-01
      446862659   -7,752856612e-02   -1,688242108e-01
      446887097   -7,753619552e-02   -1,688544899e-01
      446911535   -7,843808830e-02   -1,692510247e-01
      446935973   -7,917690277e-02   -1,698982567e-01
      446960411   -7,998631895e-02   -1,705248654e-01
      446984848   -8,102467656e-02   -1,707525700e-01
      447009286   -8,152769506e-02   -1,711628437e-01
      447033724   -8,271040022e-02   -1,716565192e-01
      447058162   -8,359607309e-02   -1,717709005e-01
      447082600   -8,427119255e-02   -1,720864922e-01
      447107038   -8,567779511e-02   -1,722756773e-01
      447131476   -8,643770218e-02   -1,720850915e-01
      447155914   -8,756563812e-02   -1,721573919e-01
      447180352   -8,871826530e-02   -1,723404676e-01
      447204790   -8,926408738e-02   -1,723908931e-01
      447229228   -9,062974155e-02   -1,728858948e-01
      447253666   -9,086970985e-02   -1,725832224e-01
      447278104   -9,193949401e-02   -1,727767140e-01
      447302542   -9,195418656e-02   -1,731643677e-01
      447326979   -9,295628965e-02   -1,734479517e-01
      447351417   -9,361895919e-02   -1,739067286e-01
      447375855   -9,441410005e-02   -1,742120385e-01
      447400293   -9,547710419e-02   -1,745972186e-01
      447424731   -9,584875405e-02   -1,749038845e-01
      447449169   -9,713219106e-02   -1,752201766e-01
      447473607   -9,763079882e-02   -1,757707596e-01
      447498045   -9,894637018e-02   -1,754808128e-01
      447522483   -9,956639260e-02   -1,756220013e-01
      447546921   -1,001159847e-01   -1,755247116e-01
      447571359   -1,012451202e-01   -1,753428876e-01
      447595797   -1,026954353e-01   -1,752675325e-01
      447620235   -1,022491753e-01   -1,757325679e-01
      447644673   -1,036625877e-01   -1,755973548e-01
      447669110   -1,041686982e-01   -1,758798808e-01
      447693548   -1,048257649e-01   -1,766917259e-01
      447717986   -1,065817326e-01   -1,760971099e-01
      447742424   -1,071333438e-01   -1,759999990e-01
      447766862   -1,075660512e-01   -1,761502475e-01
      447791300   -1,088675410e-01   -1,759489626e-01
      447815738   -1,099816114e-01   -1,760672182e-01
      447840176   -1,104255691e-01   -1,760383099e-01
      447864614   -1,108193845e-01   -1,759812236e-01
      447889052   -1,126588732e-01   -1,758091748e-01
      447913490   -1,135185584e-01   -1,760710925e-01
      447937928   -1,144779623e-01   -1,760409623e-01
      447962366   -1,153715327e-01   -1,764007956e-01
      447986804   -1,161976457e-01   -1,760588586e-01
      448011241   -1,170792654e-01   -1,763017029e-01
      448035679   -1,182486415e-01   -1,762616336e-01
      448060117   -1,191670895e-01   -1,763867438e-01
      448084555   -1,199732572e-01   -1,760518104e-01
      448108993   -1,207360178e-01   -1,762154847e-01
      448133431   -1,219080389e-01   -1,760959923e-01
      448157869   -1,224873662e-01   -1,759401709e-01
      448182307   -1,234195009e-01   -1,760898232e-01
      448206745   -1,240820587e-01   -1,761865169e-01
      448231183   -1,250164062e-01   -1,762838662e-01
      448255621   -1,265697628e-01   -1,758688539e-01
      448280059   -1,275955886e-01   -1,762033999e-01
      448304497   -1,284430921e-01   -1,761438549e-01
      448328935   -1,290958226e-01   -1,764701307e-01
      448353372   -1,303490549e-01   -1,761112958e-01
      448377810   -1,307162791e-01   -1,761723608e-01
      448402248   -1,318498701e-01   -1,758853048e-01
      448426686   -1,327943057e-01   -1,760102957e-01
      448451124   -1,340757459e-01   -1,754935235e-01
      448475562   -1,343420595e-01   -1,762803197e-01
      448500000   -1,354582310e-01   -1,759693325e-01
